# Lammps sturcture data file
# ntot =         4080
        4080   atoms
           8 atom types

          0.00000000         97.44400000   xlo xhi
          0.00000000         96.84000000   ylo yhi
          0.00000000        110.00000000   zlo zhi

Atoms

           1           1          0.30000001          0.30000001         55.30000001
           2           2          1.73300001          1.10700001         56.21100001
           3           3          3.16600001          0.30000001         55.30000001
           4           4          4.59900001          1.10700001         56.21100001
           5           5          0.30000001          1.91400001         55.30000001
           6           6          1.73300001          2.72100001         56.21100001
           7           7          3.16600001          1.91400001         55.30000001
           8           8          4.59900001          2.72100001         56.21100001
           9           1          0.30000001          3.52800001         55.30000001
          10           2          1.73300001          4.33500001         56.21100001
          11           3          3.16600001          3.52800001         55.30000001
          12           4          4.59900001          4.33500001         56.21100001
          13           5          0.30000001          5.14200001         55.30000001
          14           6          1.73300001          5.94900001         56.21100001
          15           7          3.16600001          5.14200001         55.30000001
          16           8          4.59900001          5.94900001         56.21100001
          17           1          0.30000001          6.75600001         55.30000001
          18           2          1.73300001          7.56300001         56.21100001
          19           3          3.16600001          6.75600001         55.30000001
          20           4          4.59900001          7.56300001         56.21100001
          21           5          0.30000001          8.37000001         55.30000001
          22           6          1.73300001          9.17700001         56.21100001
          23           7          3.16600001          8.37000001         55.30000001
          24           8          4.59900001          9.17700001         56.21100001
          25           1          0.30000001          9.98400001         55.30000001
          26           2          1.73300001         10.79100001         56.21100001
          27           3          3.16600001          9.98400001         55.30000001
          28           4          4.59900001         10.79100001         56.21100001
          29           5          0.30000001         11.59800001         55.30000001
          30           6          1.73300001         12.40500001         56.21100001
          31           7          3.16600001         11.59800001         55.30000001
          32           8          4.59900001         12.40500001         56.21100001
          33           1          0.30000001         13.21200001         55.30000001
          34           2          1.73300001         14.01900001         56.21100001
          35           3          3.16600001         13.21200001         55.30000001
          36           4          4.59900001         14.01900001         56.21100001
          37           5          0.30000001         14.82600001         55.30000001
          38           6          1.73300001         15.63300001         56.21100001
          39           7          3.16600001         14.82600001         55.30000001
          40           8          4.59900001         15.63300001         56.21100001
          41           1          0.30000001         16.44000001         55.30000001
          42           2          1.73300001         17.24700001         56.21100001
          43           3          3.16600001         16.44000001         55.30000001
          44           4          4.59900001         17.24700001         56.21100001
          45           5          0.30000001         18.05400001         55.30000001
          46           6          1.73300001         18.86100001         56.21100001
          47           7          3.16600001         18.05400001         55.30000001
          48           8          4.59900001         18.86100001         56.21100001
          49           1          0.30000001         19.66800001         55.30000001
          50           2          1.73300001         20.47500001         56.21100001
          51           3          3.16600001         19.66800001         55.30000001
          52           4          4.59900001         20.47500001         56.21100001
          53           5          0.30000001         21.28200001         55.30000001
          54           6          1.73300001         22.08900001         56.21100001
          55           7          3.16600001         21.28200001         55.30000001
          56           8          4.59900001         22.08900001         56.21100001
          57           1          0.30000001         22.89600001         55.30000001
          58           2          1.73300001         23.70300001         56.21100001
          59           3          3.16600001         22.89600001         55.30000001
          60           4          4.59900001         23.70300001         56.21100001
          61           5          0.30000001         24.51000001         55.30000001
          62           6          1.73300001         25.31700001         56.21100001
          63           7          3.16600001         24.51000001         55.30000001
          64           8          4.59900001         25.31700001         56.21100001
          65           1          0.30000001         26.12400001         55.30000001
          66           2          1.73300001         26.93100001         56.21100001
          67           3          3.16600001         26.12400001         55.30000001
          68           4          4.59900001         26.93100001         56.21100001
          69           5          0.30000001         27.73800001         55.30000001
          70           6          1.73300001         28.54500001         56.21100001
          71           7          3.16600001         27.73800001         55.30000001
          72           8          4.59900001         28.54500001         56.21100001
          73           1          0.30000001         29.35200001         55.30000001
          74           2          1.73300001         30.15900001         56.21100001
          75           3          3.16600001         29.35200001         55.30000001
          76           4          4.59900001         30.15900001         56.21100001
          77           5          0.30000001         30.96600001         55.30000001
          78           6          1.73300001         31.77300001         56.21100001
          79           7          3.16600001         30.96600001         55.30000001
          80           8          4.59900001         31.77300001         56.21100001
          81           1          0.30000001         32.58000001         55.30000001
          82           2          1.73300001         33.38700001         56.21100001
          83           3          3.16600001         32.58000001         55.30000001
          84           4          4.59900001         33.38700001         56.21100001
          85           5          0.30000001         34.19400001         55.30000001
          86           6          1.73300001         35.00100001         56.21100001
          87           7          3.16600001         34.19400001         55.30000001
          88           8          4.59900001         35.00100001         56.21100001
          89           1          0.30000001         35.80800001         55.30000001
          90           2          1.73300001         36.61500001         56.21100001
          91           3          3.16600001         35.80800001         55.30000001
          92           4          4.59900001         36.61500001         56.21100001
          93           5          0.30000001         37.42200001         55.30000001
          94           6          1.73300001         38.22900001         56.21100001
          95           7          3.16600001         37.42200001         55.30000001
          96           8          4.59900001         38.22900001         56.21100001
          97           1          0.30000001         39.03600001         55.30000001
          98           2          1.73300001         39.84300001         56.21100001
          99           3          3.16600001         39.03600001         55.30000001
         100           4          4.59900001         39.84300001         56.21100001
         101           5          0.30000001         40.65000001         55.30000001
         102           6          1.73300001         41.45700001         56.21100001
         103           7          3.16600001         40.65000001         55.30000001
         104           8          4.59900001         41.45700001         56.21100001
         105           1          0.30000001         42.26400001         55.30000001
         106           2          1.73300001         43.07100001         56.21100001
         107           3          3.16600001         42.26400001         55.30000001
         108           4          4.59900001         43.07100001         56.21100001
         109           5          0.30000001         43.87800001         55.30000001
         110           6          1.73300001         44.68500001         56.21100001
         111           7          3.16600001         43.87800001         55.30000001
         112           8          4.59900001         44.68500001         56.21100001
         113           1          0.30000001         45.49200001         55.30000001
         114           2          1.73300001         46.29900001         56.21100001
         115           3          3.16600001         45.49200001         55.30000001
         116           4          4.59900001         46.29900001         56.21100001
         117           5          0.30000001         47.10600001         55.30000001
         118           6          1.73300001         47.91300001         56.21100001
         119           7          3.16600001         47.10600001         55.30000001
         120           8          4.59900001         47.91300001         56.21100001
         121           1          0.30000001         48.72000001         55.30000001
         122           2          1.73300001         49.52700001         56.21100001
         123           3          3.16600001         48.72000001         55.30000001
         124           4          4.59900001         49.52700001         56.21100001
         125           5          0.30000001         50.33400001         55.30000001
         126           6          1.73300001         51.14100001         56.21100001
         127           7          3.16600001         50.33400001         55.30000001
         128           8          4.59900001         51.14100001         56.21100001
         129           1          0.30000001         51.94800001         55.30000001
         130           2          1.73300001         52.75500001         56.21100001
         131           3          3.16600001         51.94800001         55.30000001
         132           4          4.59900001         52.75500001         56.21100001
         133           5          0.30000001         53.56200001         55.30000001
         134           6          1.73300001         54.36900001         56.21100001
         135           7          3.16600001         53.56200001         55.30000001
         136           8          4.59900001         54.36900001         56.21100001
         137           1          0.30000001         55.17600001         55.30000001
         138           2          1.73300001         55.98300001         56.21100001
         139           3          3.16600001         55.17600001         55.30000001
         140           4          4.59900001         55.98300001         56.21100001
         141           5          0.30000001         56.79000001         55.30000001
         142           6          1.73300001         57.59700001         56.21100001
         143           7          3.16600001         56.79000001         55.30000001
         144           8          4.59900001         57.59700001         56.21100001
         145           1          0.30000001         58.40400001         55.30000001
         146           2          1.73300001         59.21100001         56.21100001
         147           3          3.16600001         58.40400001         55.30000001
         148           4          4.59900001         59.21100001         56.21100001
         149           5          0.30000001         60.01800001         55.30000001
         150           6          1.73300001         60.82500001         56.21100001
         151           7          3.16600001         60.01800001         55.30000001
         152           8          4.59900001         60.82500001         56.21100001
         153           1          0.30000001         61.63200001         55.30000001
         154           2          1.73300001         62.43900001         56.21100001
         155           3          3.16600001         61.63200001         55.30000001
         156           4          4.59900001         62.43900001         56.21100001
         157           5          0.30000001         63.24600001         55.30000001
         158           6          1.73300001         64.05300001         56.21100001
         159           7          3.16600001         63.24600001         55.30000001
         160           8          4.59900001         64.05300001         56.21100001
         161           1          0.30000001         64.86000001         55.30000001
         162           2          1.73300001         65.66700001         56.21100001
         163           3          3.16600001         64.86000001         55.30000001
         164           4          4.59900001         65.66700001         56.21100001
         165           5          0.30000001         66.47400001         55.30000001
         166           6          1.73300001         67.28100001         56.21100001
         167           7          3.16600001         66.47400001         55.30000001
         168           8          4.59900001         67.28100001         56.21100001
         169           1          0.30000001         68.08800001         55.30000001
         170           2          1.73300001         68.89500001         56.21100001
         171           3          3.16600001         68.08800001         55.30000001
         172           4          4.59900001         68.89500001         56.21100001
         173           5          0.30000001         69.70200001         55.30000001
         174           6          1.73300001         70.50900001         56.21100001
         175           7          3.16600001         69.70200001         55.30000001
         176           8          4.59900001         70.50900001         56.21100001
         177           1          0.30000001         71.31600001         55.30000001
         178           2          1.73300001         72.12300001         56.21100001
         179           3          3.16600001         71.31600001         55.30000001
         180           4          4.59900001         72.12300001         56.21100001
         181           5          0.30000001         72.93000001         55.30000001
         182           6          1.73300001         73.73700001         56.21100001
         183           7          3.16600001         72.93000001         55.30000001
         184           8          4.59900001         73.73700001         56.21100001
         185           1          0.30000001         74.54400001         55.30000001
         186           2          1.73300001         75.35100001         56.21100001
         187           3          3.16600001         74.54400001         55.30000001
         188           4          4.59900001         75.35100001         56.21100001
         189           5          0.30000001         76.15800001         55.30000001
         190           6          1.73300001         76.96500001         56.21100001
         191           7          3.16600001         76.15800001         55.30000001
         192           8          4.59900001         76.96500001         56.21100001
         193           1          0.30000001         77.77200001         55.30000001
         194           2          1.73300001         78.57900001         56.21100001
         195           3          3.16600001         77.77200001         55.30000001
         196           4          4.59900001         78.57900001         56.21100001
         197           5          0.30000001         79.38600001         55.30000001
         198           6          1.73300001         80.19300001         56.21100001
         199           7          3.16600001         79.38600001         55.30000001
         200           8          4.59900001         80.19300001         56.21100001
         201           1          0.30000001         81.00000001         55.30000001
         202           2          1.73300001         81.80700001         56.21100001
         203           3          3.16600001         81.00000001         55.30000001
         204           4          4.59900001         81.80700001         56.21100001
         205           5          0.30000001         82.61400001         55.30000001
         206           6          1.73300001         83.42100001         56.21100001
         207           7          3.16600001         82.61400001         55.30000001
         208           8          4.59900001         83.42100001         56.21100001
         209           1          0.30000001         84.22800001         55.30000001
         210           2          1.73300001         85.03500001         56.21100001
         211           3          3.16600001         84.22800001         55.30000001
         212           4          4.59900001         85.03500001         56.21100001
         213           5          0.30000001         85.84200001         55.30000001
         214           6          1.73300001         86.64900001         56.21100001
         215           7          3.16600001         85.84200001         55.30000001
         216           8          4.59900001         86.64900001         56.21100001
         217           1          0.30000001         87.45600001         55.30000001
         218           2          1.73300001         88.26300001         56.21100001
         219           3          3.16600001         87.45600001         55.30000001
         220           4          4.59900001         88.26300001         56.21100001
         221           5          0.30000001         89.07000001         55.30000001
         222           6          1.73300001         89.87700001         56.21100001
         223           7          3.16600001         89.07000001         55.30000001
         224           8          4.59900001         89.87700001         56.21100001
         225           1          0.30000001         90.68400001         55.30000001
         226           2          1.73300001         91.49100001         56.21100001
         227           3          3.16600001         90.68400001         55.30000001
         228           4          4.59900001         91.49100001         56.21100001
         229           5          0.30000001         92.29800001         55.30000001
         230           6          1.73300001         93.10500001         56.21100001
         231           7          3.16600001         92.29800001         55.30000001
         232           8          4.59900001         93.10500001         56.21100001
         233           1          0.30000001         93.91200001         55.30000001
         234           2          1.73300001         94.71900001         56.21100001
         235           3          3.16600001         93.91200001         55.30000001
         236           4          4.59900001         94.71900001         56.21100001
         237           5          0.30000001         95.52600001         55.30000001
         238           6          1.73300001         96.33300001         56.21100001
         239           7          3.16600001         95.52600001         55.30000001
         240           8          4.59900001         96.33300001         56.21100001
         241           1          6.03200001          0.30000001         55.30000001
         242           2          7.46500001          1.10700001         56.21100001
         243           3          8.89800001          0.30000001         55.30000001
         244           4         10.33100001          1.10700001         56.21100001
         245           5          6.03200001          1.91400001         55.30000001
         246           6          7.46500001          2.72100001         56.21100001
         247           7          8.89800001          1.91400001         55.30000001
         248           8         10.33100001          2.72100001         56.21100001
         249           1          6.03200001          3.52800001         55.30000001
         250           2          7.46500001          4.33500001         56.21100001
         251           3          8.89800001          3.52800001         55.30000001
         252           4         10.33100001          4.33500001         56.21100001
         253           5          6.03200001          5.14200001         55.30000001
         254           6          7.46500001          5.94900001         56.21100001
         255           7          8.89800001          5.14200001         55.30000001
         256           8         10.33100001          5.94900001         56.21100001
         257           1          6.03200001          6.75600001         55.30000001
         258           2          7.46500001          7.56300001         56.21100001
         259           3          8.89800001          6.75600001         55.30000001
         260           4         10.33100001          7.56300001         56.21100001
         261           5          6.03200001          8.37000001         55.30000001
         262           6          7.46500001          9.17700001         56.21100001
         263           7          8.89800001          8.37000001         55.30000001
         264           8         10.33100001          9.17700001         56.21100001
         265           1          6.03200001          9.98400001         55.30000001
         266           2          7.46500001         10.79100001         56.21100001
         267           3          8.89800001          9.98400001         55.30000001
         268           4         10.33100001         10.79100001         56.21100001
         269           5          6.03200001         11.59800001         55.30000001
         270           6          7.46500001         12.40500001         56.21100001
         271           7          8.89800001         11.59800001         55.30000001
         272           8         10.33100001         12.40500001         56.21100001
         273           1          6.03200001         13.21200001         55.30000001
         274           2          7.46500001         14.01900001         56.21100001
         275           3          8.89800001         13.21200001         55.30000001
         276           4         10.33100001         14.01900001         56.21100001
         277           5          6.03200001         14.82600001         55.30000001
         278           6          7.46500001         15.63300001         56.21100001
         279           7          8.89800001         14.82600001         55.30000001
         280           8         10.33100001         15.63300001         56.21100001
         281           1          6.03200001         16.44000001         55.30000001
         282           2          7.46500001         17.24700001         56.21100001
         283           3          8.89800001         16.44000001         55.30000001
         284           4         10.33100001         17.24700001         56.21100001
         285           5          6.03200001         18.05400001         55.30000001
         286           6          7.46500001         18.86100001         56.21100001
         287           7          8.89800001         18.05400001         55.30000001
         288           8         10.33100001         18.86100001         56.21100001
         289           1          6.03200001         19.66800001         55.30000001
         290           2          7.46500001         20.47500001         56.21100001
         291           3          8.89800001         19.66800001         55.30000001
         292           4         10.33100001         20.47500001         56.21100001
         293           5          6.03200001         21.28200001         55.30000001
         294           6          7.46500001         22.08900001         56.21100001
         295           7          8.89800001         21.28200001         55.30000001
         296           8         10.33100001         22.08900001         56.21100001
         297           1          6.03200001         22.89600001         55.30000001
         298           2          7.46500001         23.70300001         56.21100001
         299           3          8.89800001         22.89600001         55.30000001
         300           4         10.33100001         23.70300001         56.21100001
         301           5          6.03200001         24.51000001         55.30000001
         302           6          7.46500001         25.31700001         56.21100001
         303           7          8.89800001         24.51000001         55.30000001
         304           8         10.33100001         25.31700001         56.21100001
         305           1          6.03200001         26.12400001         55.30000001
         306           2          7.46500001         26.93100001         56.21100001
         307           3          8.89800001         26.12400001         55.30000001
         308           4         10.33100001         26.93100001         56.21100001
         309           5          6.03200001         27.73800001         55.30000001
         310           6          7.46500001         28.54500001         56.21100001
         311           7          8.89800001         27.73800001         55.30000001
         312           8         10.33100001         28.54500001         56.21100001
         313           1          6.03200001         29.35200001         55.30000001
         314           2          7.46500001         30.15900001         56.21100001
         315           3          8.89800001         29.35200001         55.30000001
         316           4         10.33100001         30.15900001         56.21100001
         317           5          6.03200001         30.96600001         55.30000001
         318           6          7.46500001         31.77300001         56.21100001
         319           7          8.89800001         30.96600001         55.30000001
         320           8         10.33100001         31.77300001         56.21100001
         321           1          6.03200001         32.58000001         55.30000001
         322           2          7.46500001         33.38700001         56.21100001
         323           3          8.89800001         32.58000001         55.30000001
         324           4         10.33100001         33.38700001         56.21100001
         325           5          6.03200001         34.19400001         55.30000001
         326           6          7.46500001         35.00100001         56.21100001
         327           7          8.89800001         34.19400001         55.30000001
         328           8         10.33100001         35.00100001         56.21100001
         329           1          6.03200001         35.80800001         55.30000001
         330           2          7.46500001         36.61500001         56.21100001
         331           3          8.89800001         35.80800001         55.30000001
         332           4         10.33100001         36.61500001         56.21100001
         333           5          6.03200001         37.42200001         55.30000001
         334           6          7.46500001         38.22900001         56.21100001
         335           7          8.89800001         37.42200001         55.30000001
         336           8         10.33100001         38.22900001         56.21100001
         337           1          6.03200001         39.03600001         55.30000001
         338           2          7.46500001         39.84300001         56.21100001
         339           3          8.89800001         39.03600001         55.30000001
         340           4         10.33100001         39.84300001         56.21100001
         341           5          6.03200001         40.65000001         55.30000001
         342           6          7.46500001         41.45700001         56.21100001
         343           7          8.89800001         40.65000001         55.30000001
         344           8         10.33100001         41.45700001         56.21100001
         345           1          6.03200001         42.26400001         55.30000001
         346           2          7.46500001         43.07100001         56.21100001
         347           3          8.89800001         42.26400001         55.30000001
         348           4         10.33100001         43.07100001         56.21100001
         349           5          6.03200001         43.87800001         55.30000001
         350           6          7.46500001         44.68500001         56.21100001
         351           7          8.89800001         43.87800001         55.30000001
         352           8         10.33100001         44.68500001         56.21100001
         353           1          6.03200001         45.49200001         55.30000001
         354           2          7.46500001         46.29900001         56.21100001
         355           3          8.89800001         45.49200001         55.30000001
         356           4         10.33100001         46.29900001         56.21100001
         357           5          6.03200001         47.10600001         55.30000001
         358           6          7.46500001         47.91300001         56.21100001
         359           7          8.89800001         47.10600001         55.30000001
         360           8         10.33100001         47.91300001         56.21100001
         361           1          6.03200001         48.72000001         55.30000001
         362           2          7.46500001         49.52700001         56.21100001
         363           3          8.89800001         48.72000001         55.30000001
         364           4         10.33100001         49.52700001         56.21100001
         365           5          6.03200001         50.33400001         55.30000001
         366           6          7.46500001         51.14100001         56.21100001
         367           7          8.89800001         50.33400001         55.30000001
         368           8         10.33100001         51.14100001         56.21100001
         369           1          6.03200001         51.94800001         55.30000001
         370           2          7.46500001         52.75500001         56.21100001
         371           3          8.89800001         51.94800001         55.30000001
         372           4         10.33100001         52.75500001         56.21100001
         373           5          6.03200001         53.56200001         55.30000001
         374           6          7.46500001         54.36900001         56.21100001
         375           7          8.89800001         53.56200001         55.30000001
         376           8         10.33100001         54.36900001         56.21100001
         377           1          6.03200001         55.17600001         55.30000001
         378           2          7.46500001         55.98300001         56.21100001
         379           3          8.89800001         55.17600001         55.30000001
         380           4         10.33100001         55.98300001         56.21100001
         381           5          6.03200001         56.79000001         55.30000001
         382           6          7.46500001         57.59700001         56.21100001
         383           7          8.89800001         56.79000001         55.30000001
         384           8         10.33100001         57.59700001         56.21100001
         385           1          6.03200001         58.40400001         55.30000001
         386           2          7.46500001         59.21100001         56.21100001
         387           3          8.89800001         58.40400001         55.30000001
         388           4         10.33100001         59.21100001         56.21100001
         389           5          6.03200001         60.01800001         55.30000001
         390           6          7.46500001         60.82500001         56.21100001
         391           7          8.89800001         60.01800001         55.30000001
         392           8         10.33100001         60.82500001         56.21100001
         393           1          6.03200001         61.63200001         55.30000001
         394           2          7.46500001         62.43900001         56.21100001
         395           3          8.89800001         61.63200001         55.30000001
         396           4         10.33100001         62.43900001         56.21100001
         397           5          6.03200001         63.24600001         55.30000001
         398           6          7.46500001         64.05300001         56.21100001
         399           7          8.89800001         63.24600001         55.30000001
         400           8         10.33100001         64.05300001         56.21100001
         401           1          6.03200001         64.86000001         55.30000001
         402           2          7.46500001         65.66700001         56.21100001
         403           3          8.89800001         64.86000001         55.30000001
         404           4         10.33100001         65.66700001         56.21100001
         405           5          6.03200001         66.47400001         55.30000001
         406           6          7.46500001         67.28100001         56.21100001
         407           7          8.89800001         66.47400001         55.30000001
         408           8         10.33100001         67.28100001         56.21100001
         409           1          6.03200001         68.08800001         55.30000001
         410           2          7.46500001         68.89500001         56.21100001
         411           3          8.89800001         68.08800001         55.30000001
         412           4         10.33100001         68.89500001         56.21100001
         413           5          6.03200001         69.70200001         55.30000001
         414           6          7.46500001         70.50900001         56.21100001
         415           7          8.89800001         69.70200001         55.30000001
         416           8         10.33100001         70.50900001         56.21100001
         417           1          6.03200001         71.31600001         55.30000001
         418           2          7.46500001         72.12300001         56.21100001
         419           3          8.89800001         71.31600001         55.30000001
         420           4         10.33100001         72.12300001         56.21100001
         421           5          6.03200001         72.93000001         55.30000001
         422           6          7.46500001         73.73700001         56.21100001
         423           7          8.89800001         72.93000001         55.30000001
         424           8         10.33100001         73.73700001         56.21100001
         425           1          6.03200001         74.54400001         55.30000001
         426           2          7.46500001         75.35100001         56.21100001
         427           3          8.89800001         74.54400001         55.30000001
         428           4         10.33100001         75.35100001         56.21100001
         429           5          6.03200001         76.15800001         55.30000001
         430           6          7.46500001         76.96500001         56.21100001
         431           7          8.89800001         76.15800001         55.30000001
         432           8         10.33100001         76.96500001         56.21100001
         433           1          6.03200001         77.77200001         55.30000001
         434           2          7.46500001         78.57900001         56.21100001
         435           3          8.89800001         77.77200001         55.30000001
         436           4         10.33100001         78.57900001         56.21100001
         437           5          6.03200001         79.38600001         55.30000001
         438           6          7.46500001         80.19300001         56.21100001
         439           7          8.89800001         79.38600001         55.30000001
         440           8         10.33100001         80.19300001         56.21100001
         441           1          6.03200001         81.00000001         55.30000001
         442           2          7.46500001         81.80700001         56.21100001
         443           3          8.89800001         81.00000001         55.30000001
         444           4         10.33100001         81.80700001         56.21100001
         445           5          6.03200001         82.61400001         55.30000001
         446           6          7.46500001         83.42100001         56.21100001
         447           7          8.89800001         82.61400001         55.30000001
         448           8         10.33100001         83.42100001         56.21100001
         449           1          6.03200001         84.22800001         55.30000001
         450           2          7.46500001         85.03500001         56.21100001
         451           3          8.89800001         84.22800001         55.30000001
         452           4         10.33100001         85.03500001         56.21100001
         453           5          6.03200001         85.84200001         55.30000001
         454           6          7.46500001         86.64900001         56.21100001
         455           7          8.89800001         85.84200001         55.30000001
         456           8         10.33100001         86.64900001         56.21100001
         457           1          6.03200001         87.45600001         55.30000001
         458           2          7.46500001         88.26300001         56.21100001
         459           3          8.89800001         87.45600001         55.30000001
         460           4         10.33100001         88.26300001         56.21100001
         461           5          6.03200001         89.07000001         55.30000001
         462           6          7.46500001         89.87700001         56.21100001
         463           7          8.89800001         89.07000001         55.30000001
         464           8         10.33100001         89.87700001         56.21100001
         465           1          6.03200001         90.68400001         55.30000001
         466           2          7.46500001         91.49100001         56.21100001
         467           3          8.89800001         90.68400001         55.30000001
         468           4         10.33100001         91.49100001         56.21100001
         469           5          6.03200001         92.29800001         55.30000001
         470           6          7.46500001         93.10500001         56.21100001
         471           7          8.89800001         92.29800001         55.30000001
         472           8         10.33100001         93.10500001         56.21100001
         473           1          6.03200001         93.91200001         55.30000001
         474           2          7.46500001         94.71900001         56.21100001
         475           3          8.89800001         93.91200001         55.30000001
         476           4         10.33100001         94.71900001         56.21100001
         477           5          6.03200001         95.52600001         55.30000001
         478           6          7.46500001         96.33300001         56.21100001
         479           7          8.89800001         95.52600001         55.30000001
         480           8         10.33100001         96.33300001         56.21100001
         481           1         11.76400001          0.30000001         55.30000001
         482           2         13.19700001          1.10700001         56.21100001
         483           3         14.63000001          0.30000001         55.30000001
         484           4         16.06300001          1.10700001         56.21100001
         485           5         11.76400001          1.91400001         55.30000001
         486           6         13.19700001          2.72100001         56.21100001
         487           7         14.63000001          1.91400001         55.30000001
         488           8         16.06300001          2.72100001         56.21100001
         489           1         11.76400001          3.52800001         55.30000001
         490           2         13.19700001          4.33500001         56.21100001
         491           3         14.63000001          3.52800001         55.30000001
         492           4         16.06300001          4.33500001         56.21100001
         493           5         11.76400001          5.14200001         55.30000001
         494           6         13.19700001          5.94900001         56.21100001
         495           7         14.63000001          5.14200001         55.30000001
         496           8         16.06300001          5.94900001         56.21100001
         497           1         11.76400001          6.75600001         55.30000001
         498           2         13.19700001          7.56300001         56.21100001
         499           3         14.63000001          6.75600001         55.30000001
         500           4         16.06300001          7.56300001         56.21100001
         501           5         11.76400001          8.37000001         55.30000001
         502           6         13.19700001          9.17700001         56.21100001
         503           7         14.63000001          8.37000001         55.30000001
         504           8         16.06300001          9.17700001         56.21100001
         505           1         11.76400001          9.98400001         55.30000001
         506           2         13.19700001         10.79100001         56.21100001
         507           3         14.63000001          9.98400001         55.30000001
         508           4         16.06300001         10.79100001         56.21100001
         509           5         11.76400001         11.59800001         55.30000001
         510           6         13.19700001         12.40500001         56.21100001
         511           7         14.63000001         11.59800001         55.30000001
         512           8         16.06300001         12.40500001         56.21100001
         513           1         11.76400001         13.21200001         55.30000001
         514           2         13.19700001         14.01900001         56.21100001
         515           3         14.63000001         13.21200001         55.30000001
         516           4         16.06300001         14.01900001         56.21100001
         517           5         11.76400001         14.82600001         55.30000001
         518           6         13.19700001         15.63300001         56.21100001
         519           7         14.63000001         14.82600001         55.30000001
         520           8         16.06300001         15.63300001         56.21100001
         521           1         11.76400001         16.44000001         55.30000001
         522           2         13.19700001         17.24700001         56.21100001
         523           3         14.63000001         16.44000001         55.30000001
         524           4         16.06300001         17.24700001         56.21100001
         525           5         11.76400001         18.05400001         55.30000001
         526           6         13.19700001         18.86100001         56.21100001
         527           7         14.63000001         18.05400001         55.30000001
         528           8         16.06300001         18.86100001         56.21100001
         529           1         11.76400001         19.66800001         55.30000001
         530           2         13.19700001         20.47500001         56.21100001
         531           3         14.63000001         19.66800001         55.30000001
         532           4         16.06300001         20.47500001         56.21100001
         533           5         11.76400001         21.28200001         55.30000001
         534           6         13.19700001         22.08900001         56.21100001
         535           7         14.63000001         21.28200001         55.30000001
         536           8         16.06300001         22.08900001         56.21100001
         537           1         11.76400001         22.89600001         55.30000001
         538           2         13.19700001         23.70300001         56.21100001
         539           3         14.63000001         22.89600001         55.30000001
         540           4         16.06300001         23.70300001         56.21100001
         541           5         11.76400001         24.51000001         55.30000001
         542           6         13.19700001         25.31700001         56.21100001
         543           7         14.63000001         24.51000001         55.30000001
         544           8         16.06300001         25.31700001         56.21100001
         545           1         11.76400001         26.12400001         55.30000001
         546           2         13.19700001         26.93100001         56.21100001
         547           3         14.63000001         26.12400001         55.30000001
         548           4         16.06300001         26.93100001         56.21100001
         549           5         11.76400001         27.73800001         55.30000001
         550           6         13.19700001         28.54500001         56.21100001
         551           7         14.63000001         27.73800001         55.30000001
         552           8         16.06300001         28.54500001         56.21100001
         553           1         11.76400001         29.35200001         55.30000001
         554           2         13.19700001         30.15900001         56.21100001
         555           3         14.63000001         29.35200001         55.30000001
         556           4         16.06300001         30.15900001         56.21100001
         557           5         11.76400001         30.96600001         55.30000001
         558           6         13.19700001         31.77300001         56.21100001
         559           7         14.63000001         30.96600001         55.30000001
         560           8         16.06300001         31.77300001         56.21100001
         561           1         11.76400001         32.58000001         55.30000001
         562           2         13.19700001         33.38700001         56.21100001
         563           3         14.63000001         32.58000001         55.30000001
         564           4         16.06300001         33.38700001         56.21100001
         565           5         11.76400001         34.19400001         55.30000001
         566           6         13.19700001         35.00100001         56.21100001
         567           7         14.63000001         34.19400001         55.30000001
         568           8         16.06300001         35.00100001         56.21100001
         569           1         11.76400001         35.80800001         55.30000001
         570           2         13.19700001         36.61500001         56.21100001
         571           3         14.63000001         35.80800001         55.30000001
         572           4         16.06300001         36.61500001         56.21100001
         573           5         11.76400001         37.42200001         55.30000001
         574           6         13.19700001         38.22900001         56.21100001
         575           7         14.63000001         37.42200001         55.30000001
         576           8         16.06300001         38.22900001         56.21100001
         577           1         11.76400001         39.03600001         55.30000001
         578           2         13.19700001         39.84300001         56.21100001
         579           3         14.63000001         39.03600001         55.30000001
         580           4         16.06300001         39.84300001         56.21100001
         581           5         11.76400001         40.65000001         55.30000001
         582           6         13.19700001         41.45700001         56.21100001
         583           7         14.63000001         40.65000001         55.30000001
         584           8         16.06300001         41.45700001         56.21100001
         585           1         11.76400001         42.26400001         55.30000001
         586           2         13.19700001         43.07100001         56.21100001
         587           3         14.63000001         42.26400001         55.30000001
         588           4         16.06300001         43.07100001         56.21100001
         589           5         11.76400001         43.87800001         55.30000001
         590           6         13.19700001         44.68500001         56.21100001
         591           7         14.63000001         43.87800001         55.30000001
         592           8         16.06300001         44.68500001         56.21100001
         593           1         11.76400001         45.49200001         55.30000001
         594           2         13.19700001         46.29900001         56.21100001
         595           3         14.63000001         45.49200001         55.30000001
         596           4         16.06300001         46.29900001         56.21100001
         597           5         11.76400001         47.10600001         55.30000001
         598           6         13.19700001         47.91300001         56.21100001
         599           7         14.63000001         47.10600001         55.30000001
         600           8         16.06300001         47.91300001         56.21100001
         601           1         11.76400001         48.72000001         55.30000001
         602           2         13.19700001         49.52700001         56.21100001
         603           3         14.63000001         48.72000001         55.30000001
         604           4         16.06300001         49.52700001         56.21100001
         605           5         11.76400001         50.33400001         55.30000001
         606           6         13.19700001         51.14100001         56.21100001
         607           7         14.63000001         50.33400001         55.30000001
         608           8         16.06300001         51.14100001         56.21100001
         609           1         11.76400001         51.94800001         55.30000001
         610           2         13.19700001         52.75500001         56.21100001
         611           3         14.63000001         51.94800001         55.30000001
         612           4         16.06300001         52.75500001         56.21100001
         613           5         11.76400001         53.56200001         55.30000001
         614           6         13.19700001         54.36900001         56.21100001
         615           7         14.63000001         53.56200001         55.30000001
         616           8         16.06300001         54.36900001         56.21100001
         617           1         11.76400001         55.17600001         55.30000001
         618           2         13.19700001         55.98300001         56.21100001
         619           3         14.63000001         55.17600001         55.30000001
         620           4         16.06300001         55.98300001         56.21100001
         621           5         11.76400001         56.79000001         55.30000001
         622           6         13.19700001         57.59700001         56.21100001
         623           7         14.63000001         56.79000001         55.30000001
         624           8         16.06300001         57.59700001         56.21100001
         625           1         11.76400001         58.40400001         55.30000001
         626           2         13.19700001         59.21100001         56.21100001
         627           3         14.63000001         58.40400001         55.30000001
         628           4         16.06300001         59.21100001         56.21100001
         629           5         11.76400001         60.01800001         55.30000001
         630           6         13.19700001         60.82500001         56.21100001
         631           7         14.63000001         60.01800001         55.30000001
         632           8         16.06300001         60.82500001         56.21100001
         633           1         11.76400001         61.63200001         55.30000001
         634           2         13.19700001         62.43900001         56.21100001
         635           3         14.63000001         61.63200001         55.30000001
         636           4         16.06300001         62.43900001         56.21100001
         637           5         11.76400001         63.24600001         55.30000001
         638           6         13.19700001         64.05300001         56.21100001
         639           7         14.63000001         63.24600001         55.30000001
         640           8         16.06300001         64.05300001         56.21100001
         641           1         11.76400001         64.86000001         55.30000001
         642           2         13.19700001         65.66700001         56.21100001
         643           3         14.63000001         64.86000001         55.30000001
         644           4         16.06300001         65.66700001         56.21100001
         645           5         11.76400001         66.47400001         55.30000001
         646           6         13.19700001         67.28100001         56.21100001
         647           7         14.63000001         66.47400001         55.30000001
         648           8         16.06300001         67.28100001         56.21100001
         649           1         11.76400001         68.08800001         55.30000001
         650           2         13.19700001         68.89500001         56.21100001
         651           3         14.63000001         68.08800001         55.30000001
         652           4         16.06300001         68.89500001         56.21100001
         653           5         11.76400001         69.70200001         55.30000001
         654           6         13.19700001         70.50900001         56.21100001
         655           7         14.63000001         69.70200001         55.30000001
         656           8         16.06300001         70.50900001         56.21100001
         657           1         11.76400001         71.31600001         55.30000001
         658           2         13.19700001         72.12300001         56.21100001
         659           3         14.63000001         71.31600001         55.30000001
         660           4         16.06300001         72.12300001         56.21100001
         661           5         11.76400001         72.93000001         55.30000001
         662           6         13.19700001         73.73700001         56.21100001
         663           7         14.63000001         72.93000001         55.30000001
         664           8         16.06300001         73.73700001         56.21100001
         665           1         11.76400001         74.54400001         55.30000001
         666           2         13.19700001         75.35100001         56.21100001
         667           3         14.63000001         74.54400001         55.30000001
         668           4         16.06300001         75.35100001         56.21100001
         669           5         11.76400001         76.15800001         55.30000001
         670           6         13.19700001         76.96500001         56.21100001
         671           7         14.63000001         76.15800001         55.30000001
         672           8         16.06300001         76.96500001         56.21100001
         673           1         11.76400001         77.77200001         55.30000001
         674           2         13.19700001         78.57900001         56.21100001
         675           3         14.63000001         77.77200001         55.30000001
         676           4         16.06300001         78.57900001         56.21100001
         677           5         11.76400001         79.38600001         55.30000001
         678           6         13.19700001         80.19300001         56.21100001
         679           7         14.63000001         79.38600001         55.30000001
         680           8         16.06300001         80.19300001         56.21100001
         681           1         11.76400001         81.00000001         55.30000001
         682           2         13.19700001         81.80700001         56.21100001
         683           3         14.63000001         81.00000001         55.30000001
         684           4         16.06300001         81.80700001         56.21100001
         685           5         11.76400001         82.61400001         55.30000001
         686           6         13.19700001         83.42100001         56.21100001
         687           7         14.63000001         82.61400001         55.30000001
         688           8         16.06300001         83.42100001         56.21100001
         689           1         11.76400001         84.22800001         55.30000001
         690           2         13.19700001         85.03500001         56.21100001
         691           3         14.63000001         84.22800001         55.30000001
         692           4         16.06300001         85.03500001         56.21100001
         693           5         11.76400001         85.84200001         55.30000001
         694           6         13.19700001         86.64900001         56.21100001
         695           7         14.63000001         85.84200001         55.30000001
         696           8         16.06300001         86.64900001         56.21100001
         697           1         11.76400001         87.45600001         55.30000001
         698           2         13.19700001         88.26300001         56.21100001
         699           3         14.63000001         87.45600001         55.30000001
         700           4         16.06300001         88.26300001         56.21100001
         701           5         11.76400001         89.07000001         55.30000001
         702           6         13.19700001         89.87700001         56.21100001
         703           7         14.63000001         89.07000001         55.30000001
         704           8         16.06300001         89.87700001         56.21100001
         705           1         11.76400001         90.68400001         55.30000001
         706           2         13.19700001         91.49100001         56.21100001
         707           3         14.63000001         90.68400001         55.30000001
         708           4         16.06300001         91.49100001         56.21100001
         709           5         11.76400001         92.29800001         55.30000001
         710           6         13.19700001         93.10500001         56.21100001
         711           7         14.63000001         92.29800001         55.30000001
         712           8         16.06300001         93.10500001         56.21100001
         713           1         11.76400001         93.91200001         55.30000001
         714           2         13.19700001         94.71900001         56.21100001
         715           3         14.63000001         93.91200001         55.30000001
         716           4         16.06300001         94.71900001         56.21100001
         717           5         11.76400001         95.52600001         55.30000001
         718           6         13.19700001         96.33300001         56.21100001
         719           7         14.63000001         95.52600001         55.30000001
         720           8         16.06300001         96.33300001         56.21100001
         721           1         17.49600001          0.30000001         55.30000001
         722           2         18.92900001          1.10700001         56.21100001
         723           3         20.36200001          0.30000001         55.30000001
         724           4         21.79500001          1.10700001         56.21100001
         725           5         17.49600001          1.91400001         55.30000001
         726           6         18.92900001          2.72100001         56.21100001
         727           7         20.36200001          1.91400001         55.30000001
         728           8         21.79500001          2.72100001         56.21100001
         729           1         17.49600001          3.52800001         55.30000001
         730           2         18.92900001          4.33500001         56.21100001
         731           3         20.36200001          3.52800001         55.30000001
         732           4         21.79500001          4.33500001         56.21100001
         733           5         17.49600001          5.14200001         55.30000001
         734           6         18.92900001          5.94900001         56.21100001
         735           7         20.36200001          5.14200001         55.30000001
         736           8         21.79500001          5.94900001         56.21100001
         737           1         17.49600001          6.75600001         55.30000001
         738           2         18.92900001          7.56300001         56.21100001
         739           3         20.36200001          6.75600001         55.30000001
         740           4         21.79500001          7.56300001         56.21100001
         741           5         17.49600001          8.37000001         55.30000001
         742           6         18.92900001          9.17700001         56.21100001
         743           7         20.36200001          8.37000001         55.30000001
         744           8         21.79500001          9.17700001         56.21100001
         745           1         17.49600001          9.98400001         55.30000001
         746           2         18.92900001         10.79100001         56.21100001
         747           3         20.36200001          9.98400001         55.30000001
         748           4         21.79500001         10.79100001         56.21100001
         749           5         17.49600001         11.59800001         55.30000001
         750           6         18.92900001         12.40500001         56.21100001
         751           7         20.36200001         11.59800001         55.30000001
         752           8         21.79500001         12.40500001         56.21100001
         753           1         17.49600001         13.21200001         55.30000001
         754           2         18.92900001         14.01900001         56.21100001
         755           3         20.36200001         13.21200001         55.30000001
         756           4         21.79500001         14.01900001         56.21100001
         757           5         17.49600001         14.82600001         55.30000001
         758           6         18.92900001         15.63300001         56.21100001
         759           7         20.36200001         14.82600001         55.30000001
         760           8         21.79500001         15.63300001         56.21100001
         761           1         17.49600001         16.44000001         55.30000001
         762           2         18.92900001         17.24700001         56.21100001
         763           3         20.36200001         16.44000001         55.30000001
         764           4         21.79500001         17.24700001         56.21100001
         765           5         17.49600001         18.05400001         55.30000001
         766           6         18.92900001         18.86100001         56.21100001
         767           7         20.36200001         18.05400001         55.30000001
         768           8         21.79500001         18.86100001         56.21100001
         769           1         17.49600001         19.66800001         55.30000001
         770           2         18.92900001         20.47500001         56.21100001
         771           3         20.36200001         19.66800001         55.30000001
         772           4         21.79500001         20.47500001         56.21100001
         773           5         17.49600001         21.28200001         55.30000001
         774           6         18.92900001         22.08900001         56.21100001
         775           7         20.36200001         21.28200001         55.30000001
         776           8         21.79500001         22.08900001         56.21100001
         777           1         17.49600001         22.89600001         55.30000001
         778           2         18.92900001         23.70300001         56.21100001
         779           3         20.36200001         22.89600001         55.30000001
         780           4         21.79500001         23.70300001         56.21100001
         781           5         17.49600001         24.51000001         55.30000001
         782           6         18.92900001         25.31700001         56.21100001
         783           7         20.36200001         24.51000001         55.30000001
         784           8         21.79500001         25.31700001         56.21100001
         785           1         17.49600001         26.12400001         55.30000001
         786           2         18.92900001         26.93100001         56.21100001
         787           3         20.36200001         26.12400001         55.30000001
         788           4         21.79500001         26.93100001         56.21100001
         789           5         17.49600001         27.73800001         55.30000001
         790           6         18.92900001         28.54500001         56.21100001
         791           7         20.36200001         27.73800001         55.30000001
         792           8         21.79500001         28.54500001         56.21100001
         793           1         17.49600001         29.35200001         55.30000001
         794           2         18.92900001         30.15900001         56.21100001
         795           3         20.36200001         29.35200001         55.30000001
         796           4         21.79500001         30.15900001         56.21100001
         797           5         17.49600001         30.96600001         55.30000001
         798           6         18.92900001         31.77300001         56.21100001
         799           7         20.36200001         30.96600001         55.30000001
         800           8         21.79500001         31.77300001         56.21100001
         801           1         17.49600001         32.58000001         55.30000001
         802           2         18.92900001         33.38700001         56.21100001
         803           3         20.36200001         32.58000001         55.30000001
         804           4         21.79500001         33.38700001         56.21100001
         805           5         17.49600001         34.19400001         55.30000001
         806           6         18.92900001         35.00100001         56.21100001
         807           7         20.36200001         34.19400001         55.30000001
         808           8         21.79500001         35.00100001         56.21100001
         809           1         17.49600001         35.80800001         55.30000001
         810           2         18.92900001         36.61500001         56.21100001
         811           3         20.36200001         35.80800001         55.30000001
         812           4         21.79500001         36.61500001         56.21100001
         813           5         17.49600001         37.42200001         55.30000001
         814           6         18.92900001         38.22900001         56.21100001
         815           7         20.36200001         37.42200001         55.30000001
         816           8         21.79500001         38.22900001         56.21100001
         817           1         17.49600001         39.03600001         55.30000001
         818           2         18.92900001         39.84300001         56.21100001
         819           3         20.36200001         39.03600001         55.30000001
         820           4         21.79500001         39.84300001         56.21100001
         821           5         17.49600001         40.65000001         55.30000001
         822           6         18.92900001         41.45700001         56.21100001
         823           7         20.36200001         40.65000001         55.30000001
         824           8         21.79500001         41.45700001         56.21100001
         825           1         17.49600001         42.26400001         55.30000001
         826           2         18.92900001         43.07100001         56.21100001
         827           3         20.36200001         42.26400001         55.30000001
         828           4         21.79500001         43.07100001         56.21100001
         829           5         17.49600001         43.87800001         55.30000001
         830           6         18.92900001         44.68500001         56.21100001
         831           7         20.36200001         43.87800001         55.30000001
         832           8         21.79500001         44.68500001         56.21100001
         833           1         17.49600001         45.49200001         55.30000001
         834           2         18.92900001         46.29900001         56.21100001
         835           3         20.36200001         45.49200001         55.30000001
         836           4         21.79500001         46.29900001         56.21100001
         837           5         17.49600001         47.10600001         55.30000001
         838           6         18.92900001         47.91300001         56.21100001
         839           7         20.36200001         47.10600001         55.30000001
         840           8         21.79500001         47.91300001         56.21100001
         841           1         17.49600001         48.72000001         55.30000001
         842           2         18.92900001         49.52700001         56.21100001
         843           3         20.36200001         48.72000001         55.30000001
         844           4         21.79500001         49.52700001         56.21100001
         845           5         17.49600001         50.33400001         55.30000001
         846           6         18.92900001         51.14100001         56.21100001
         847           7         20.36200001         50.33400001         55.30000001
         848           8         21.79500001         51.14100001         56.21100001
         849           1         17.49600001         51.94800001         55.30000001
         850           2         18.92900001         52.75500001         56.21100001
         851           3         20.36200001         51.94800001         55.30000001
         852           4         21.79500001         52.75500001         56.21100001
         853           5         17.49600001         53.56200001         55.30000001
         854           6         18.92900001         54.36900001         56.21100001
         855           7         20.36200001         53.56200001         55.30000001
         856           8         21.79500001         54.36900001         56.21100001
         857           1         17.49600001         55.17600001         55.30000001
         858           2         18.92900001         55.98300001         56.21100001
         859           3         20.36200001         55.17600001         55.30000001
         860           4         21.79500001         55.98300001         56.21100001
         861           5         17.49600001         56.79000001         55.30000001
         862           6         18.92900001         57.59700001         56.21100001
         863           7         20.36200001         56.79000001         55.30000001
         864           8         21.79500001         57.59700001         56.21100001
         865           1         17.49600001         58.40400001         55.30000001
         866           2         18.92900001         59.21100001         56.21100001
         867           3         20.36200001         58.40400001         55.30000001
         868           4         21.79500001         59.21100001         56.21100001
         869           5         17.49600001         60.01800001         55.30000001
         870           6         18.92900001         60.82500001         56.21100001
         871           7         20.36200001         60.01800001         55.30000001
         872           8         21.79500001         60.82500001         56.21100001
         873           1         17.49600001         61.63200001         55.30000001
         874           2         18.92900001         62.43900001         56.21100001
         875           3         20.36200001         61.63200001         55.30000001
         876           4         21.79500001         62.43900001         56.21100001
         877           5         17.49600001         63.24600001         55.30000001
         878           6         18.92900001         64.05300001         56.21100001
         879           7         20.36200001         63.24600001         55.30000001
         880           8         21.79500001         64.05300001         56.21100001
         881           1         17.49600001         64.86000001         55.30000001
         882           2         18.92900001         65.66700001         56.21100001
         883           3         20.36200001         64.86000001         55.30000001
         884           4         21.79500001         65.66700001         56.21100001
         885           5         17.49600001         66.47400001         55.30000001
         886           6         18.92900001         67.28100001         56.21100001
         887           7         20.36200001         66.47400001         55.30000001
         888           8         21.79500001         67.28100001         56.21100001
         889           1         17.49600001         68.08800001         55.30000001
         890           2         18.92900001         68.89500001         56.21100001
         891           3         20.36200001         68.08800001         55.30000001
         892           4         21.79500001         68.89500001         56.21100001
         893           5         17.49600001         69.70200001         55.30000001
         894           6         18.92900001         70.50900001         56.21100001
         895           7         20.36200001         69.70200001         55.30000001
         896           8         21.79500001         70.50900001         56.21100001
         897           1         17.49600001         71.31600001         55.30000001
         898           2         18.92900001         72.12300001         56.21100001
         899           3         20.36200001         71.31600001         55.30000001
         900           4         21.79500001         72.12300001         56.21100001
         901           5         17.49600001         72.93000001         55.30000001
         902           6         18.92900001         73.73700001         56.21100001
         903           7         20.36200001         72.93000001         55.30000001
         904           8         21.79500001         73.73700001         56.21100001
         905           1         17.49600001         74.54400001         55.30000001
         906           2         18.92900001         75.35100001         56.21100001
         907           3         20.36200001         74.54400001         55.30000001
         908           4         21.79500001         75.35100001         56.21100001
         909           5         17.49600001         76.15800001         55.30000001
         910           6         18.92900001         76.96500001         56.21100001
         911           7         20.36200001         76.15800001         55.30000001
         912           8         21.79500001         76.96500001         56.21100001
         913           1         17.49600001         77.77200001         55.30000001
         914           2         18.92900001         78.57900001         56.21100001
         915           3         20.36200001         77.77200001         55.30000001
         916           4         21.79500001         78.57900001         56.21100001
         917           5         17.49600001         79.38600001         55.30000001
         918           6         18.92900001         80.19300001         56.21100001
         919           7         20.36200001         79.38600001         55.30000001
         920           8         21.79500001         80.19300001         56.21100001
         921           1         17.49600001         81.00000001         55.30000001
         922           2         18.92900001         81.80700001         56.21100001
         923           3         20.36200001         81.00000001         55.30000001
         924           4         21.79500001         81.80700001         56.21100001
         925           5         17.49600001         82.61400001         55.30000001
         926           6         18.92900001         83.42100001         56.21100001
         927           7         20.36200001         82.61400001         55.30000001
         928           8         21.79500001         83.42100001         56.21100001
         929           1         17.49600001         84.22800001         55.30000001
         930           2         18.92900001         85.03500001         56.21100001
         931           3         20.36200001         84.22800001         55.30000001
         932           4         21.79500001         85.03500001         56.21100001
         933           5         17.49600001         85.84200001         55.30000001
         934           6         18.92900001         86.64900001         56.21100001
         935           7         20.36200001         85.84200001         55.30000001
         936           8         21.79500001         86.64900001         56.21100001
         937           1         17.49600001         87.45600001         55.30000001
         938           2         18.92900001         88.26300001         56.21100001
         939           3         20.36200001         87.45600001         55.30000001
         940           4         21.79500001         88.26300001         56.21100001
         941           5         17.49600001         89.07000001         55.30000001
         942           6         18.92900001         89.87700001         56.21100001
         943           7         20.36200001         89.07000001         55.30000001
         944           8         21.79500001         89.87700001         56.21100001
         945           1         17.49600001         90.68400001         55.30000001
         946           2         18.92900001         91.49100001         56.21100001
         947           3         20.36200001         90.68400001         55.30000001
         948           4         21.79500001         91.49100001         56.21100001
         949           5         17.49600001         92.29800001         55.30000001
         950           6         18.92900001         93.10500001         56.21100001
         951           7         20.36200001         92.29800001         55.30000001
         952           8         21.79500001         93.10500001         56.21100001
         953           1         17.49600001         93.91200001         55.30000001
         954           2         18.92900001         94.71900001         56.21100001
         955           3         20.36200001         93.91200001         55.30000001
         956           4         21.79500001         94.71900001         56.21100001
         957           5         17.49600001         95.52600001         55.30000001
         958           6         18.92900001         96.33300001         56.21100001
         959           7         20.36200001         95.52600001         55.30000001
         960           8         21.79500001         96.33300001         56.21100001
         961           1         23.22800001          0.30000001         55.30000001
         962           2         24.66100001          1.10700001         56.21100001
         963           3         26.09400001          0.30000001         55.30000001
         964           4         27.52700001          1.10700001         56.21100001
         965           5         23.22800001          1.91400001         55.30000001
         966           6         24.66100001          2.72100001         56.21100001
         967           7         26.09400001          1.91400001         55.30000001
         968           8         27.52700001          2.72100001         56.21100001
         969           1         23.22800001          3.52800001         55.30000001
         970           2         24.66100001          4.33500001         56.21100001
         971           3         26.09400001          3.52800001         55.30000001
         972           4         27.52700001          4.33500001         56.21100001
         973           5         23.22800001          5.14200001         55.30000001
         974           6         24.66100001          5.94900001         56.21100001
         975           7         26.09400001          5.14200001         55.30000001
         976           8         27.52700001          5.94900001         56.21100001
         977           1         23.22800001          6.75600001         55.30000001
         978           2         24.66100001          7.56300001         56.21100001
         979           3         26.09400001          6.75600001         55.30000001
         980           4         27.52700001          7.56300001         56.21100001
         981           5         23.22800001          8.37000001         55.30000001
         982           6         24.66100001          9.17700001         56.21100001
         983           7         26.09400001          8.37000001         55.30000001
         984           8         27.52700001          9.17700001         56.21100001
         985           1         23.22800001          9.98400001         55.30000001
         986           2         24.66100001         10.79100001         56.21100001
         987           3         26.09400001          9.98400001         55.30000001
         988           4         27.52700001         10.79100001         56.21100001
         989           5         23.22800001         11.59800001         55.30000001
         990           6         24.66100001         12.40500001         56.21100001
         991           7         26.09400001         11.59800001         55.30000001
         992           8         27.52700001         12.40500001         56.21100001
         993           1         23.22800001         13.21200001         55.30000001
         994           2         24.66100001         14.01900001         56.21100001
         995           3         26.09400001         13.21200001         55.30000001
         996           4         27.52700001         14.01900001         56.21100001
         997           5         23.22800001         14.82600001         55.30000001
         998           6         24.66100001         15.63300001         56.21100001
         999           7         26.09400001         14.82600001         55.30000001
        1000           8         27.52700001         15.63300001         56.21100001
        1001           1         23.22800001         16.44000001         55.30000001
        1002           2         24.66100001         17.24700001         56.21100001
        1003           3         26.09400001         16.44000001         55.30000001
        1004           4         27.52700001         17.24700001         56.21100001
        1005           5         23.22800001         18.05400001         55.30000001
        1006           6         24.66100001         18.86100001         56.21100001
        1007           7         26.09400001         18.05400001         55.30000001
        1008           8         27.52700001         18.86100001         56.21100001
        1009           1         23.22800001         19.66800001         55.30000001
        1010           2         24.66100001         20.47500001         56.21100001
        1011           3         26.09400001         19.66800001         55.30000001
        1012           4         27.52700001         20.47500001         56.21100001
        1013           5         23.22800001         21.28200001         55.30000001
        1014           6         24.66100001         22.08900001         56.21100001
        1015           7         26.09400001         21.28200001         55.30000001
        1016           8         27.52700001         22.08900001         56.21100001
        1017           1         23.22800001         22.89600001         55.30000001
        1018           2         24.66100001         23.70300001         56.21100001
        1019           3         26.09400001         22.89600001         55.30000001
        1020           4         27.52700001         23.70300001         56.21100001
        1021           5         23.22800001         24.51000001         55.30000001
        1022           6         24.66100001         25.31700001         56.21100001
        1023           7         26.09400001         24.51000001         55.30000001
        1024           8         27.52700001         25.31700001         56.21100001
        1025           1         23.22800001         26.12400001         55.30000001
        1026           2         24.66100001         26.93100001         56.21100001
        1027           3         26.09400001         26.12400001         55.30000001
        1028           4         27.52700001         26.93100001         56.21100001
        1029           5         23.22800001         27.73800001         55.30000001
        1030           6         24.66100001         28.54500001         56.21100001
        1031           7         26.09400001         27.73800001         55.30000001
        1032           8         27.52700001         28.54500001         56.21100001
        1033           1         23.22800001         29.35200001         55.30000001
        1034           2         24.66100001         30.15900001         56.21100001
        1035           3         26.09400001         29.35200001         55.30000001
        1036           4         27.52700001         30.15900001         56.21100001
        1037           5         23.22800001         30.96600001         55.30000001
        1038           6         24.66100001         31.77300001         56.21100001
        1039           7         26.09400001         30.96600001         55.30000001
        1040           8         27.52700001         31.77300001         56.21100001
        1041           1         23.22800001         32.58000001         55.30000001
        1042           2         24.66100001         33.38700001         56.21100001
        1043           3         26.09400001         32.58000001         55.30000001
        1044           4         27.52700001         33.38700001         56.21100001
        1045           5         23.22800001         34.19400001         55.30000001
        1046           6         24.66100001         35.00100001         56.21100001
        1047           7         26.09400001         34.19400001         55.30000001
        1048           8         27.52700001         35.00100001         56.21100001
        1049           1         23.22800001         35.80800001         55.30000001
        1050           2         24.66100001         36.61500001         56.21100001
        1051           3         26.09400001         35.80800001         55.30000001
        1052           4         27.52700001         36.61500001         56.21100001
        1053           5         23.22800001         37.42200001         55.30000001
        1054           6         24.66100001         38.22900001         56.21100001
        1055           7         26.09400001         37.42200001         55.30000001
        1056           8         27.52700001         38.22900001         56.21100001
        1057           1         23.22800001         39.03600001         55.30000001
        1058           2         24.66100001         39.84300001         56.21100001
        1059           3         26.09400001         39.03600001         55.30000001
        1060           4         27.52700001         39.84300001         56.21100001
        1061           5         23.22800001         40.65000001         55.30000001
        1062           6         24.66100001         41.45700001         56.21100001
        1063           7         26.09400001         40.65000001         55.30000001
        1064           8         27.52700001         41.45700001         56.21100001
        1065           1         23.22800001         42.26400001         55.30000001
        1066           2         24.66100001         43.07100001         56.21100001
        1067           3         26.09400001         42.26400001         55.30000001
        1068           4         27.52700001         43.07100001         56.21100001
        1069           5         23.22800001         43.87800001         55.30000001
        1070           6         24.66100001         44.68500001         56.21100001
        1071           7         26.09400001         43.87800001         55.30000001
        1072           8         27.52700001         44.68500001         56.21100001
        1073           1         23.22800001         45.49200001         55.30000001
        1074           2         24.66100001         46.29900001         56.21100001
        1075           3         26.09400001         45.49200001         55.30000001
        1076           4         27.52700001         46.29900001         56.21100001
        1077           5         23.22800001         47.10600001         55.30000001
        1078           6         24.66100001         47.91300001         56.21100001
        1079           7         26.09400001         47.10600001         55.30000001
        1080           8         27.52700001         47.91300001         56.21100001
        1081           1         23.22800001         48.72000001         55.30000001
        1082           2         24.66100001         49.52700001         56.21100001
        1083           3         26.09400001         48.72000001         55.30000001
        1084           4         27.52700001         49.52700001         56.21100001
        1085           5         23.22800001         50.33400001         55.30000001
        1086           6         24.66100001         51.14100001         56.21100001
        1087           7         26.09400001         50.33400001         55.30000001
        1088           8         27.52700001         51.14100001         56.21100001
        1089           1         23.22800001         51.94800001         55.30000001
        1090           2         24.66100001         52.75500001         56.21100001
        1091           3         26.09400001         51.94800001         55.30000001
        1092           4         27.52700001         52.75500001         56.21100001
        1093           5         23.22800001         53.56200001         55.30000001
        1094           6         24.66100001         54.36900001         56.21100001
        1095           7         26.09400001         53.56200001         55.30000001
        1096           8         27.52700001         54.36900001         56.21100001
        1097           1         23.22800001         55.17600001         55.30000001
        1098           2         24.66100001         55.98300001         56.21100001
        1099           3         26.09400001         55.17600001         55.30000001
        1100           4         27.52700001         55.98300001         56.21100001
        1101           5         23.22800001         56.79000001         55.30000001
        1102           6         24.66100001         57.59700001         56.21100001
        1103           7         26.09400001         56.79000001         55.30000001
        1104           8         27.52700001         57.59700001         56.21100001
        1105           1         23.22800001         58.40400001         55.30000001
        1106           2         24.66100001         59.21100001         56.21100001
        1107           3         26.09400001         58.40400001         55.30000001
        1108           4         27.52700001         59.21100001         56.21100001
        1109           5         23.22800001         60.01800001         55.30000001
        1110           6         24.66100001         60.82500001         56.21100001
        1111           7         26.09400001         60.01800001         55.30000001
        1112           8         27.52700001         60.82500001         56.21100001
        1113           1         23.22800001         61.63200001         55.30000001
        1114           2         24.66100001         62.43900001         56.21100001
        1115           3         26.09400001         61.63200001         55.30000001
        1116           4         27.52700001         62.43900001         56.21100001
        1117           5         23.22800001         63.24600001         55.30000001
        1118           6         24.66100001         64.05300001         56.21100001
        1119           7         26.09400001         63.24600001         55.30000001
        1120           8         27.52700001         64.05300001         56.21100001
        1121           1         23.22800001         64.86000001         55.30000001
        1122           2         24.66100001         65.66700001         56.21100001
        1123           3         26.09400001         64.86000001         55.30000001
        1124           4         27.52700001         65.66700001         56.21100001
        1125           5         23.22800001         66.47400001         55.30000001
        1126           6         24.66100001         67.28100001         56.21100001
        1127           7         26.09400001         66.47400001         55.30000001
        1128           8         27.52700001         67.28100001         56.21100001
        1129           1         23.22800001         68.08800001         55.30000001
        1130           2         24.66100001         68.89500001         56.21100001
        1131           3         26.09400001         68.08800001         55.30000001
        1132           4         27.52700001         68.89500001         56.21100001
        1133           5         23.22800001         69.70200001         55.30000001
        1134           6         24.66100001         70.50900001         56.21100001
        1135           7         26.09400001         69.70200001         55.30000001
        1136           8         27.52700001         70.50900001         56.21100001
        1137           1         23.22800001         71.31600001         55.30000001
        1138           2         24.66100001         72.12300001         56.21100001
        1139           3         26.09400001         71.31600001         55.30000001
        1140           4         27.52700001         72.12300001         56.21100001
        1141           5         23.22800001         72.93000001         55.30000001
        1142           6         24.66100001         73.73700001         56.21100001
        1143           7         26.09400001         72.93000001         55.30000001
        1144           8         27.52700001         73.73700001         56.21100001
        1145           1         23.22800001         74.54400001         55.30000001
        1146           2         24.66100001         75.35100001         56.21100001
        1147           3         26.09400001         74.54400001         55.30000001
        1148           4         27.52700001         75.35100001         56.21100001
        1149           5         23.22800001         76.15800001         55.30000001
        1150           6         24.66100001         76.96500001         56.21100001
        1151           7         26.09400001         76.15800001         55.30000001
        1152           8         27.52700001         76.96500001         56.21100001
        1153           1         23.22800001         77.77200001         55.30000001
        1154           2         24.66100001         78.57900001         56.21100001
        1155           3         26.09400001         77.77200001         55.30000001
        1156           4         27.52700001         78.57900001         56.21100001
        1157           5         23.22800001         79.38600001         55.30000001
        1158           6         24.66100001         80.19300001         56.21100001
        1159           7         26.09400001         79.38600001         55.30000001
        1160           8         27.52700001         80.19300001         56.21100001
        1161           1         23.22800001         81.00000001         55.30000001
        1162           2         24.66100001         81.80700001         56.21100001
        1163           3         26.09400001         81.00000001         55.30000001
        1164           4         27.52700001         81.80700001         56.21100001
        1165           5         23.22800001         82.61400001         55.30000001
        1166           6         24.66100001         83.42100001         56.21100001
        1167           7         26.09400001         82.61400001         55.30000001
        1168           8         27.52700001         83.42100001         56.21100001
        1169           1         23.22800001         84.22800001         55.30000001
        1170           2         24.66100001         85.03500001         56.21100001
        1171           3         26.09400001         84.22800001         55.30000001
        1172           4         27.52700001         85.03500001         56.21100001
        1173           5         23.22800001         85.84200001         55.30000001
        1174           6         24.66100001         86.64900001         56.21100001
        1175           7         26.09400001         85.84200001         55.30000001
        1176           8         27.52700001         86.64900001         56.21100001
        1177           1         23.22800001         87.45600001         55.30000001
        1178           2         24.66100001         88.26300001         56.21100001
        1179           3         26.09400001         87.45600001         55.30000001
        1180           4         27.52700001         88.26300001         56.21100001
        1181           5         23.22800001         89.07000001         55.30000001
        1182           6         24.66100001         89.87700001         56.21100001
        1183           7         26.09400001         89.07000001         55.30000001
        1184           8         27.52700001         89.87700001         56.21100001
        1185           1         23.22800001         90.68400001         55.30000001
        1186           2         24.66100001         91.49100001         56.21100001
        1187           3         26.09400001         90.68400001         55.30000001
        1188           4         27.52700001         91.49100001         56.21100001
        1189           5         23.22800001         92.29800001         55.30000001
        1190           6         24.66100001         93.10500001         56.21100001
        1191           7         26.09400001         92.29800001         55.30000001
        1192           8         27.52700001         93.10500001         56.21100001
        1193           1         23.22800001         93.91200001         55.30000001
        1194           2         24.66100001         94.71900001         56.21100001
        1195           3         26.09400001         93.91200001         55.30000001
        1196           4         27.52700001         94.71900001         56.21100001
        1197           5         23.22800001         95.52600001         55.30000001
        1198           6         24.66100001         96.33300001         56.21100001
        1199           7         26.09400001         95.52600001         55.30000001
        1200           8         27.52700001         96.33300001         56.21100001
        1201           1         28.96000001          0.30000001         55.30000001
        1202           2         30.39300001          1.10700001         56.21100001
        1203           3         31.82600001          0.30000001         55.30000001
        1204           4         33.25900001          1.10700001         56.21100001
        1205           5         28.96000001          1.91400001         55.30000001
        1206           6         30.39300001          2.72100001         56.21100001
        1207           7         31.82600001          1.91400001         55.30000001
        1208           8         33.25900001          2.72100001         56.21100001
        1209           1         28.96000001          3.52800001         55.30000001
        1210           2         30.39300001          4.33500001         56.21100001
        1211           3         31.82600001          3.52800001         55.30000001
        1212           4         33.25900001          4.33500001         56.21100001
        1213           5         28.96000001          5.14200001         55.30000001
        1214           6         30.39300001          5.94900001         56.21100001
        1215           7         31.82600001          5.14200001         55.30000001
        1216           8         33.25900001          5.94900001         56.21100001
        1217           1         28.96000001          6.75600001         55.30000001
        1218           2         30.39300001          7.56300001         56.21100001
        1219           3         31.82600001          6.75600001         55.30000001
        1220           4         33.25900001          7.56300001         56.21100001
        1221           5         28.96000001          8.37000001         55.30000001
        1222           6         30.39300001          9.17700001         56.21100001
        1223           7         31.82600001          8.37000001         55.30000001
        1224           8         33.25900001          9.17700001         56.21100001
        1225           1         28.96000001          9.98400001         55.30000001
        1226           2         30.39300001         10.79100001         56.21100001
        1227           3         31.82600001          9.98400001         55.30000001
        1228           4         33.25900001         10.79100001         56.21100001
        1229           5         28.96000001         11.59800001         55.30000001
        1230           6         30.39300001         12.40500001         56.21100001
        1231           7         31.82600001         11.59800001         55.30000001
        1232           8         33.25900001         12.40500001         56.21100001
        1233           1         28.96000001         13.21200001         55.30000001
        1234           2         30.39300001         14.01900001         56.21100001
        1235           3         31.82600001         13.21200001         55.30000001
        1236           4         33.25900001         14.01900001         56.21100001
        1237           5         28.96000001         14.82600001         55.30000001
        1238           6         30.39300001         15.63300001         56.21100001
        1239           7         31.82600001         14.82600001         55.30000001
        1240           8         33.25900001         15.63300001         56.21100001
        1241           1         28.96000001         16.44000001         55.30000001
        1242           2         30.39300001         17.24700001         56.21100001
        1243           3         31.82600001         16.44000001         55.30000001
        1244           4         33.25900001         17.24700001         56.21100001
        1245           5         28.96000001         18.05400001         55.30000001
        1246           6         30.39300001         18.86100001         56.21100001
        1247           7         31.82600001         18.05400001         55.30000001
        1248           8         33.25900001         18.86100001         56.21100001
        1249           1         28.96000001         19.66800001         55.30000001
        1250           2         30.39300001         20.47500001         56.21100001
        1251           3         31.82600001         19.66800001         55.30000001
        1252           4         33.25900001         20.47500001         56.21100001
        1253           5         28.96000001         21.28200001         55.30000001
        1254           6         30.39300001         22.08900001         56.21100001
        1255           7         31.82600001         21.28200001         55.30000001
        1256           8         33.25900001         22.08900001         56.21100001
        1257           1         28.96000001         22.89600001         55.30000001
        1258           2         30.39300001         23.70300001         56.21100001
        1259           3         31.82600001         22.89600001         55.30000001
        1260           4         33.25900001         23.70300001         56.21100001
        1261           5         28.96000001         24.51000001         55.30000001
        1262           6         30.39300001         25.31700001         56.21100001
        1263           7         31.82600001         24.51000001         55.30000001
        1264           8         33.25900001         25.31700001         56.21100001
        1265           1         28.96000001         26.12400001         55.30000001
        1266           2         30.39300001         26.93100001         56.21100001
        1267           3         31.82600001         26.12400001         55.30000001
        1268           4         33.25900001         26.93100001         56.21100001
        1269           5         28.96000001         27.73800001         55.30000001
        1270           6         30.39300001         28.54500001         56.21100001
        1271           7         31.82600001         27.73800001         55.30000001
        1272           8         33.25900001         28.54500001         56.21100001
        1273           1         28.96000001         29.35200001         55.30000001
        1274           2         30.39300001         30.15900001         56.21100001
        1275           3         31.82600001         29.35200001         55.30000001
        1276           4         33.25900001         30.15900001         56.21100001
        1277           5         28.96000001         30.96600001         55.30000001
        1278           6         30.39300001         31.77300001         56.21100001
        1279           7         31.82600001         30.96600001         55.30000001
        1280           8         33.25900001         31.77300001         56.21100001
        1281           1         28.96000001         32.58000001         55.30000001
        1282           2         30.39300001         33.38700001         56.21100001
        1283           3         31.82600001         32.58000001         55.30000001
        1284           4         33.25900001         33.38700001         56.21100001
        1285           5         28.96000001         34.19400001         55.30000001
        1286           6         30.39300001         35.00100001         56.21100001
        1287           7         31.82600001         34.19400001         55.30000001
        1288           8         33.25900001         35.00100001         56.21100001
        1289           1         28.96000001         35.80800001         55.30000001
        1290           2         30.39300001         36.61500001         56.21100001
        1291           3         31.82600001         35.80800001         55.30000001
        1292           4         33.25900001         36.61500001         56.21100001
        1293           5         28.96000001         37.42200001         55.30000001
        1294           6         30.39300001         38.22900001         56.21100001
        1295           7         31.82600001         37.42200001         55.30000001
        1296           8         33.25900001         38.22900001         56.21100001
        1297           1         28.96000001         39.03600001         55.30000001
        1298           2         30.39300001         39.84300001         56.21100001
        1299           3         31.82600001         39.03600001         55.30000001
        1300           4         33.25900001         39.84300001         56.21100001
        1301           5         28.96000001         40.65000001         55.30000001
        1302           6         30.39300001         41.45700001         56.21100001
        1303           7         31.82600001         40.65000001         55.30000001
        1304           8         33.25900001         41.45700001         56.21100001
        1305           1         28.96000001         42.26400001         55.30000001
        1306           2         30.39300001         43.07100001         56.21100001
        1307           3         31.82600001         42.26400001         55.30000001
        1308           4         33.25900001         43.07100001         56.21100001
        1309           5         28.96000001         43.87800001         55.30000001
        1310           6         30.39300001         44.68500001         56.21100001
        1311           7         31.82600001         43.87800001         55.30000001
        1312           8         33.25900001         44.68500001         56.21100001
        1313           1         28.96000001         45.49200001         55.30000001
        1314           2         30.39300001         46.29900001         56.21100001
        1315           3         31.82600001         45.49200001         55.30000001
        1316           4         33.25900001         46.29900001         56.21100001
        1317           5         28.96000001         47.10600001         55.30000001
        1318           6         30.39300001         47.91300001         56.21100001
        1319           7         31.82600001         47.10600001         55.30000001
        1320           8         33.25900001         47.91300001         56.21100001
        1321           1         28.96000001         48.72000001         55.30000001
        1322           2         30.39300001         49.52700001         56.21100001
        1323           3         31.82600001         48.72000001         55.30000001
        1324           4         33.25900001         49.52700001         56.21100001
        1325           5         28.96000001         50.33400001         55.30000001
        1326           6         30.39300001         51.14100001         56.21100001
        1327           7         31.82600001         50.33400001         55.30000001
        1328           8         33.25900001         51.14100001         56.21100001
        1329           1         28.96000001         51.94800001         55.30000001
        1330           2         30.39300001         52.75500001         56.21100001
        1331           3         31.82600001         51.94800001         55.30000001
        1332           4         33.25900001         52.75500001         56.21100001
        1333           5         28.96000001         53.56200001         55.30000001
        1334           6         30.39300001         54.36900001         56.21100001
        1335           7         31.82600001         53.56200001         55.30000001
        1336           8         33.25900001         54.36900001         56.21100001
        1337           1         28.96000001         55.17600001         55.30000001
        1338           2         30.39300001         55.98300001         56.21100001
        1339           3         31.82600001         55.17600001         55.30000001
        1340           4         33.25900001         55.98300001         56.21100001
        1341           5         28.96000001         56.79000001         55.30000001
        1342           6         30.39300001         57.59700001         56.21100001
        1343           7         31.82600001         56.79000001         55.30000001
        1344           8         33.25900001         57.59700001         56.21100001
        1345           1         28.96000001         58.40400001         55.30000001
        1346           2         30.39300001         59.21100001         56.21100001
        1347           3         31.82600001         58.40400001         55.30000001
        1348           4         33.25900001         59.21100001         56.21100001
        1349           5         28.96000001         60.01800001         55.30000001
        1350           6         30.39300001         60.82500001         56.21100001
        1351           7         31.82600001         60.01800001         55.30000001
        1352           8         33.25900001         60.82500001         56.21100001
        1353           1         28.96000001         61.63200001         55.30000001
        1354           2         30.39300001         62.43900001         56.21100001
        1355           3         31.82600001         61.63200001         55.30000001
        1356           4         33.25900001         62.43900001         56.21100001
        1357           5         28.96000001         63.24600001         55.30000001
        1358           6         30.39300001         64.05300001         56.21100001
        1359           7         31.82600001         63.24600001         55.30000001
        1360           8         33.25900001         64.05300001         56.21100001
        1361           1         28.96000001         64.86000001         55.30000001
        1362           2         30.39300001         65.66700001         56.21100001
        1363           3         31.82600001         64.86000001         55.30000001
        1364           4         33.25900001         65.66700001         56.21100001
        1365           5         28.96000001         66.47400001         55.30000001
        1366           6         30.39300001         67.28100001         56.21100001
        1367           7         31.82600001         66.47400001         55.30000001
        1368           8         33.25900001         67.28100001         56.21100001
        1369           1         28.96000001         68.08800001         55.30000001
        1370           2         30.39300001         68.89500001         56.21100001
        1371           3         31.82600001         68.08800001         55.30000001
        1372           4         33.25900001         68.89500001         56.21100001
        1373           5         28.96000001         69.70200001         55.30000001
        1374           6         30.39300001         70.50900001         56.21100001
        1375           7         31.82600001         69.70200001         55.30000001
        1376           8         33.25900001         70.50900001         56.21100001
        1377           1         28.96000001         71.31600001         55.30000001
        1378           2         30.39300001         72.12300001         56.21100001
        1379           3         31.82600001         71.31600001         55.30000001
        1380           4         33.25900001         72.12300001         56.21100001
        1381           5         28.96000001         72.93000001         55.30000001
        1382           6         30.39300001         73.73700001         56.21100001
        1383           7         31.82600001         72.93000001         55.30000001
        1384           8         33.25900001         73.73700001         56.21100001
        1385           1         28.96000001         74.54400001         55.30000001
        1386           2         30.39300001         75.35100001         56.21100001
        1387           3         31.82600001         74.54400001         55.30000001
        1388           4         33.25900001         75.35100001         56.21100001
        1389           5         28.96000001         76.15800001         55.30000001
        1390           6         30.39300001         76.96500001         56.21100001
        1391           7         31.82600001         76.15800001         55.30000001
        1392           8         33.25900001         76.96500001         56.21100001
        1393           1         28.96000001         77.77200001         55.30000001
        1394           2         30.39300001         78.57900001         56.21100001
        1395           3         31.82600001         77.77200001         55.30000001
        1396           4         33.25900001         78.57900001         56.21100001
        1397           5         28.96000001         79.38600001         55.30000001
        1398           6         30.39300001         80.19300001         56.21100001
        1399           7         31.82600001         79.38600001         55.30000001
        1400           8         33.25900001         80.19300001         56.21100001
        1401           1         28.96000001         81.00000001         55.30000001
        1402           2         30.39300001         81.80700001         56.21100001
        1403           3         31.82600001         81.00000001         55.30000001
        1404           4         33.25900001         81.80700001         56.21100001
        1405           5         28.96000001         82.61400001         55.30000001
        1406           6         30.39300001         83.42100001         56.21100001
        1407           7         31.82600001         82.61400001         55.30000001
        1408           8         33.25900001         83.42100001         56.21100001
        1409           1         28.96000001         84.22800001         55.30000001
        1410           2         30.39300001         85.03500001         56.21100001
        1411           3         31.82600001         84.22800001         55.30000001
        1412           4         33.25900001         85.03500001         56.21100001
        1413           5         28.96000001         85.84200001         55.30000001
        1414           6         30.39300001         86.64900001         56.21100001
        1415           7         31.82600001         85.84200001         55.30000001
        1416           8         33.25900001         86.64900001         56.21100001
        1417           1         28.96000001         87.45600001         55.30000001
        1418           2         30.39300001         88.26300001         56.21100001
        1419           3         31.82600001         87.45600001         55.30000001
        1420           4         33.25900001         88.26300001         56.21100001
        1421           5         28.96000001         89.07000001         55.30000001
        1422           6         30.39300001         89.87700001         56.21100001
        1423           7         31.82600001         89.07000001         55.30000001
        1424           8         33.25900001         89.87700001         56.21100001
        1425           1         28.96000001         90.68400001         55.30000001
        1426           2         30.39300001         91.49100001         56.21100001
        1427           3         31.82600001         90.68400001         55.30000001
        1428           4         33.25900001         91.49100001         56.21100001
        1429           5         28.96000001         92.29800001         55.30000001
        1430           6         30.39300001         93.10500001         56.21100001
        1431           7         31.82600001         92.29800001         55.30000001
        1432           8         33.25900001         93.10500001         56.21100001
        1433           1         28.96000001         93.91200001         55.30000001
        1434           2         30.39300001         94.71900001         56.21100001
        1435           3         31.82600001         93.91200001         55.30000001
        1436           4         33.25900001         94.71900001         56.21100001
        1437           5         28.96000001         95.52600001         55.30000001
        1438           6         30.39300001         96.33300001         56.21100001
        1439           7         31.82600001         95.52600001         55.30000001
        1440           8         33.25900001         96.33300001         56.21100001
        1441           1         34.69200001          0.30000001         55.30000001
        1442           2         36.12500001          1.10700001         56.21100001
        1443           3         37.55800001          0.30000001         55.30000001
        1444           4         38.99100001          1.10700001         56.21100001
        1445           5         34.69200001          1.91400001         55.30000001
        1446           6         36.12500001          2.72100001         56.21100001
        1447           7         37.55800001          1.91400001         55.30000001
        1448           8         38.99100001          2.72100001         56.21100001
        1449           1         34.69200001          3.52800001         55.30000001
        1450           2         36.12500001          4.33500001         56.21100001
        1451           3         37.55800001          3.52800001         55.30000001
        1452           4         38.99100001          4.33500001         56.21100001
        1453           5         34.69200001          5.14200001         55.30000001
        1454           6         36.12500001          5.94900001         56.21100001
        1455           7         37.55800001          5.14200001         55.30000001
        1456           8         38.99100001          5.94900001         56.21100001
        1457           1         34.69200001          6.75600001         55.30000001
        1458           2         36.12500001          7.56300001         56.21100001
        1459           3         37.55800001          6.75600001         55.30000001
        1460           4         38.99100001          7.56300001         56.21100001
        1461           5         34.69200001          8.37000001         55.30000001
        1462           6         36.12500001          9.17700001         56.21100001
        1463           7         37.55800001          8.37000001         55.30000001
        1464           8         38.99100001          9.17700001         56.21100001
        1465           1         34.69200001          9.98400001         55.30000001
        1466           2         36.12500001         10.79100001         56.21100001
        1467           3         37.55800001          9.98400001         55.30000001
        1468           4         38.99100001         10.79100001         56.21100001
        1469           5         34.69200001         11.59800001         55.30000001
        1470           6         36.12500001         12.40500001         56.21100001
        1471           7         37.55800001         11.59800001         55.30000001
        1472           8         38.99100001         12.40500001         56.21100001
        1473           1         34.69200001         13.21200001         55.30000001
        1474           2         36.12500001         14.01900001         56.21100001
        1475           3         37.55800001         13.21200001         55.30000001
        1476           4         38.99100001         14.01900001         56.21100001
        1477           5         34.69200001         14.82600001         55.30000001
        1478           6         36.12500001         15.63300001         56.21100001
        1479           7         37.55800001         14.82600001         55.30000001
        1480           8         38.99100001         15.63300001         56.21100001
        1481           1         34.69200001         16.44000001         55.30000001
        1482           2         36.12500001         17.24700001         56.21100001
        1483           3         37.55800001         16.44000001         55.30000001
        1484           4         38.99100001         17.24700001         56.21100001
        1485           5         34.69200001         18.05400001         55.30000001
        1486           6         36.12500001         18.86100001         56.21100001
        1487           7         37.55800001         18.05400001         55.30000001
        1488           8         38.99100001         18.86100001         56.21100001
        1489           1         34.69200001         19.66800001         55.30000001
        1490           2         36.12500001         20.47500001         56.21100001
        1491           3         37.55800001         19.66800001         55.30000001
        1492           4         38.99100001         20.47500001         56.21100001
        1493           5         34.69200001         21.28200001         55.30000001
        1494           6         36.12500001         22.08900001         56.21100001
        1495           7         37.55800001         21.28200001         55.30000001
        1496           8         38.99100001         22.08900001         56.21100001
        1497           1         34.69200001         22.89600001         55.30000001
        1498           2         36.12500001         23.70300001         56.21100001
        1499           3         37.55800001         22.89600001         55.30000001
        1500           4         38.99100001         23.70300001         56.21100001
        1501           5         34.69200001         24.51000001         55.30000001
        1502           6         36.12500001         25.31700001         56.21100001
        1503           7         37.55800001         24.51000001         55.30000001
        1504           8         38.99100001         25.31700001         56.21100001
        1505           1         34.69200001         26.12400001         55.30000001
        1506           2         36.12500001         26.93100001         56.21100001
        1507           3         37.55800001         26.12400001         55.30000001
        1508           4         38.99100001         26.93100001         56.21100001
        1509           5         34.69200001         27.73800001         55.30000001
        1510           6         36.12500001         28.54500001         56.21100001
        1511           7         37.55800001         27.73800001         55.30000001
        1512           8         38.99100001         28.54500001         56.21100001
        1513           1         34.69200001         29.35200001         55.30000001
        1514           2         36.12500001         30.15900001         56.21100001
        1515           3         37.55800001         29.35200001         55.30000001
        1516           4         38.99100001         30.15900001         56.21100001
        1517           5         34.69200001         30.96600001         55.30000001
        1518           6         36.12500001         31.77300001         56.21100001
        1519           7         37.55800001         30.96600001         55.30000001
        1520           8         38.99100001         31.77300001         56.21100001
        1521           1         34.69200001         32.58000001         55.30000001
        1522           2         36.12500001         33.38700001         56.21100001
        1523           3         37.55800001         32.58000001         55.30000001
        1524           4         38.99100001         33.38700001         56.21100001
        1525           5         34.69200001         34.19400001         55.30000001
        1526           6         36.12500001         35.00100001         56.21100001
        1527           7         37.55800001         34.19400001         55.30000001
        1528           8         38.99100001         35.00100001         56.21100001
        1529           1         34.69200001         35.80800001         55.30000001
        1530           2         36.12500001         36.61500001         56.21100001
        1531           3         37.55800001         35.80800001         55.30000001
        1532           4         38.99100001         36.61500001         56.21100001
        1533           5         34.69200001         37.42200001         55.30000001
        1534           6         36.12500001         38.22900001         56.21100001
        1535           7         37.55800001         37.42200001         55.30000001
        1536           8         38.99100001         38.22900001         56.21100001
        1537           1         34.69200001         39.03600001         55.30000001
        1538           2         36.12500001         39.84300001         56.21100001
        1539           3         37.55800001         39.03600001         55.30000001
        1540           4         38.99100001         39.84300001         56.21100001
        1541           5         34.69200001         40.65000001         55.30000001
        1542           6         36.12500001         41.45700001         56.21100001
        1543           7         37.55800001         40.65000001         55.30000001
        1544           8         38.99100001         41.45700001         56.21100001
        1545           1         34.69200001         42.26400001         55.30000001
        1546           2         36.12500001         43.07100001         56.21100001
        1547           3         37.55800001         42.26400001         55.30000001
        1548           4         38.99100001         43.07100001         56.21100001
        1549           5         34.69200001         43.87800001         55.30000001
        1550           6         36.12500001         44.68500001         56.21100001
        1551           7         37.55800001         43.87800001         55.30000001
        1552           8         38.99100001         44.68500001         56.21100001
        1553           1         34.69200001         45.49200001         55.30000001
        1554           2         36.12500001         46.29900001         56.21100001
        1555           3         37.55800001         45.49200001         55.30000001
        1556           4         38.99100001         46.29900001         56.21100001
        1557           5         34.69200001         47.10600001         55.30000001
        1558           6         36.12500001         47.91300001         56.21100001
        1559           7         37.55800001         47.10600001         55.30000001
        1560           8         38.99100001         47.91300001         56.21100001
        1561           1         34.69200001         48.72000001         55.30000001
        1562           2         36.12500001         49.52700001         56.21100001
        1563           3         37.55800001         48.72000001         55.30000001
        1564           4         38.99100001         49.52700001         56.21100001
        1565           5         34.69200001         50.33400001         55.30000001
        1566           6         36.12500001         51.14100001         56.21100001
        1567           7         37.55800001         50.33400001         55.30000001
        1568           8         38.99100001         51.14100001         56.21100001
        1569           1         34.69200001         51.94800001         55.30000001
        1570           2         36.12500001         52.75500001         56.21100001
        1571           3         37.55800001         51.94800001         55.30000001
        1572           4         38.99100001         52.75500001         56.21100001
        1573           5         34.69200001         53.56200001         55.30000001
        1574           6         36.12500001         54.36900001         56.21100001
        1575           7         37.55800001         53.56200001         55.30000001
        1576           8         38.99100001         54.36900001         56.21100001
        1577           1         34.69200001         55.17600001         55.30000001
        1578           2         36.12500001         55.98300001         56.21100001
        1579           3         37.55800001         55.17600001         55.30000001
        1580           4         38.99100001         55.98300001         56.21100001
        1581           5         34.69200001         56.79000001         55.30000001
        1582           6         36.12500001         57.59700001         56.21100001
        1583           7         37.55800001         56.79000001         55.30000001
        1584           8         38.99100001         57.59700001         56.21100001
        1585           1         34.69200001         58.40400001         55.30000001
        1586           2         36.12500001         59.21100001         56.21100001
        1587           3         37.55800001         58.40400001         55.30000001
        1588           4         38.99100001         59.21100001         56.21100001
        1589           5         34.69200001         60.01800001         55.30000001
        1590           6         36.12500001         60.82500001         56.21100001
        1591           7         37.55800001         60.01800001         55.30000001
        1592           8         38.99100001         60.82500001         56.21100001
        1593           1         34.69200001         61.63200001         55.30000001
        1594           2         36.12500001         62.43900001         56.21100001
        1595           3         37.55800001         61.63200001         55.30000001
        1596           4         38.99100001         62.43900001         56.21100001
        1597           5         34.69200001         63.24600001         55.30000001
        1598           6         36.12500001         64.05300001         56.21100001
        1599           7         37.55800001         63.24600001         55.30000001
        1600           8         38.99100001         64.05300001         56.21100001
        1601           1         34.69200001         64.86000001         55.30000001
        1602           2         36.12500001         65.66700001         56.21100001
        1603           3         37.55800001         64.86000001         55.30000001
        1604           4         38.99100001         65.66700001         56.21100001
        1605           5         34.69200001         66.47400001         55.30000001
        1606           6         36.12500001         67.28100001         56.21100001
        1607           7         37.55800001         66.47400001         55.30000001
        1608           8         38.99100001         67.28100001         56.21100001
        1609           1         34.69200001         68.08800001         55.30000001
        1610           2         36.12500001         68.89500001         56.21100001
        1611           3         37.55800001         68.08800001         55.30000001
        1612           4         38.99100001         68.89500001         56.21100001
        1613           5         34.69200001         69.70200001         55.30000001
        1614           6         36.12500001         70.50900001         56.21100001
        1615           7         37.55800001         69.70200001         55.30000001
        1616           8         38.99100001         70.50900001         56.21100001
        1617           1         34.69200001         71.31600001         55.30000001
        1618           2         36.12500001         72.12300001         56.21100001
        1619           3         37.55800001         71.31600001         55.30000001
        1620           4         38.99100001         72.12300001         56.21100001
        1621           5         34.69200001         72.93000001         55.30000001
        1622           6         36.12500001         73.73700001         56.21100001
        1623           7         37.55800001         72.93000001         55.30000001
        1624           8         38.99100001         73.73700001         56.21100001
        1625           1         34.69200001         74.54400001         55.30000001
        1626           2         36.12500001         75.35100001         56.21100001
        1627           3         37.55800001         74.54400001         55.30000001
        1628           4         38.99100001         75.35100001         56.21100001
        1629           5         34.69200001         76.15800001         55.30000001
        1630           6         36.12500001         76.96500001         56.21100001
        1631           7         37.55800001         76.15800001         55.30000001
        1632           8         38.99100001         76.96500001         56.21100001
        1633           1         34.69200001         77.77200001         55.30000001
        1634           2         36.12500001         78.57900001         56.21100001
        1635           3         37.55800001         77.77200001         55.30000001
        1636           4         38.99100001         78.57900001         56.21100001
        1637           5         34.69200001         79.38600001         55.30000001
        1638           6         36.12500001         80.19300001         56.21100001
        1639           7         37.55800001         79.38600001         55.30000001
        1640           8         38.99100001         80.19300001         56.21100001
        1641           1         34.69200001         81.00000001         55.30000001
        1642           2         36.12500001         81.80700001         56.21100001
        1643           3         37.55800001         81.00000001         55.30000001
        1644           4         38.99100001         81.80700001         56.21100001
        1645           5         34.69200001         82.61400001         55.30000001
        1646           6         36.12500001         83.42100001         56.21100001
        1647           7         37.55800001         82.61400001         55.30000001
        1648           8         38.99100001         83.42100001         56.21100001
        1649           1         34.69200001         84.22800001         55.30000001
        1650           2         36.12500001         85.03500001         56.21100001
        1651           3         37.55800001         84.22800001         55.30000001
        1652           4         38.99100001         85.03500001         56.21100001
        1653           5         34.69200001         85.84200001         55.30000001
        1654           6         36.12500001         86.64900001         56.21100001
        1655           7         37.55800001         85.84200001         55.30000001
        1656           8         38.99100001         86.64900001         56.21100001
        1657           1         34.69200001         87.45600001         55.30000001
        1658           2         36.12500001         88.26300001         56.21100001
        1659           3         37.55800001         87.45600001         55.30000001
        1660           4         38.99100001         88.26300001         56.21100001
        1661           5         34.69200001         89.07000001         55.30000001
        1662           6         36.12500001         89.87700001         56.21100001
        1663           7         37.55800001         89.07000001         55.30000001
        1664           8         38.99100001         89.87700001         56.21100001
        1665           1         34.69200001         90.68400001         55.30000001
        1666           2         36.12500001         91.49100001         56.21100001
        1667           3         37.55800001         90.68400001         55.30000001
        1668           4         38.99100001         91.49100001         56.21100001
        1669           5         34.69200001         92.29800001         55.30000001
        1670           6         36.12500001         93.10500001         56.21100001
        1671           7         37.55800001         92.29800001         55.30000001
        1672           8         38.99100001         93.10500001         56.21100001
        1673           1         34.69200001         93.91200001         55.30000001
        1674           2         36.12500001         94.71900001         56.21100001
        1675           3         37.55800001         93.91200001         55.30000001
        1676           4         38.99100001         94.71900001         56.21100001
        1677           5         34.69200001         95.52600001         55.30000001
        1678           6         36.12500001         96.33300001         56.21100001
        1679           7         37.55800001         95.52600001         55.30000001
        1680           8         38.99100001         96.33300001         56.21100001
        1681           1         40.42400001          0.30000001         55.30000001
        1682           2         41.85700001          1.10700001         56.21100001
        1683           3         43.29000001          0.30000001         55.30000001
        1684           4         44.72300001          1.10700001         56.21100001
        1685           5         40.42400001          1.91400001         55.30000001
        1686           6         41.85700001          2.72100001         56.21100001
        1687           7         43.29000001          1.91400001         55.30000001
        1688           8         44.72300001          2.72100001         56.21100001
        1689           1         40.42400001          3.52800001         55.30000001
        1690           2         41.85700001          4.33500001         56.21100001
        1691           3         43.29000001          3.52800001         55.30000001
        1692           4         44.72300001          4.33500001         56.21100001
        1693           5         40.42400001          5.14200001         55.30000001
        1694           6         41.85700001          5.94900001         56.21100001
        1695           7         43.29000001          5.14200001         55.30000001
        1696           8         44.72300001          5.94900001         56.21100001
        1697           1         40.42400001          6.75600001         55.30000001
        1698           2         41.85700001          7.56300001         56.21100001
        1699           3         43.29000001          6.75600001         55.30000001
        1700           4         44.72300001          7.56300001         56.21100001
        1701           5         40.42400001          8.37000001         55.30000001
        1702           6         41.85700001          9.17700001         56.21100001
        1703           7         43.29000001          8.37000001         55.30000001
        1704           8         44.72300001          9.17700001         56.21100001
        1705           1         40.42400001          9.98400001         55.30000001
        1706           2         41.85700001         10.79100001         56.21100001
        1707           3         43.29000001          9.98400001         55.30000001
        1708           4         44.72300001         10.79100001         56.21100001
        1709           5         40.42400001         11.59800001         55.30000001
        1710           6         41.85700001         12.40500001         56.21100001
        1711           7         43.29000001         11.59800001         55.30000001
        1712           8         44.72300001         12.40500001         56.21100001
        1713           1         40.42400001         13.21200001         55.30000001
        1714           2         41.85700001         14.01900001         56.21100001
        1715           3         43.29000001         13.21200001         55.30000001
        1716           4         44.72300001         14.01900001         56.21100001
        1717           5         40.42400001         14.82600001         55.30000001
        1718           6         41.85700001         15.63300001         56.21100001
        1719           7         43.29000001         14.82600001         55.30000001
        1720           8         44.72300001         15.63300001         56.21100001
        1721           1         40.42400001         16.44000001         55.30000001
        1722           2         41.85700001         17.24700001         56.21100001
        1723           3         43.29000001         16.44000001         55.30000001
        1724           4         44.72300001         17.24700001         56.21100001
        1725           5         40.42400001         18.05400001         55.30000001
        1726           6         41.85700001         18.86100001         56.21100001
        1727           7         43.29000001         18.05400001         55.30000001
        1728           8         44.72300001         18.86100001         56.21100001
        1729           1         40.42400001         19.66800001         55.30000001
        1730           2         41.85700001         20.47500001         56.21100001
        1731           3         43.29000001         19.66800001         55.30000001
        1732           4         44.72300001         20.47500001         56.21100001
        1733           5         40.42400001         21.28200001         55.30000001
        1734           6         41.85700001         22.08900001         56.21100001
        1735           7         43.29000001         21.28200001         55.30000001
        1736           8         44.72300001         22.08900001         56.21100001
        1737           1         40.42400001         22.89600001         55.30000001
        1738           2         41.85700001         23.70300001         56.21100001
        1739           3         43.29000001         22.89600001         55.30000001
        1740           4         44.72300001         23.70300001         56.21100001
        1741           5         40.42400001         24.51000001         55.30000001
        1742           6         41.85700001         25.31700001         56.21100001
        1743           7         43.29000001         24.51000001         55.30000001
        1744           8         44.72300001         25.31700001         56.21100001
        1745           1         40.42400001         26.12400001         55.30000001
        1746           2         41.85700001         26.93100001         56.21100001
        1747           3         43.29000001         26.12400001         55.30000001
        1748           4         44.72300001         26.93100001         56.21100001
        1749           5         40.42400001         27.73800001         55.30000001
        1750           6         41.85700001         28.54500001         56.21100001
        1751           7         43.29000001         27.73800001         55.30000001
        1752           8         44.72300001         28.54500001         56.21100001
        1753           1         40.42400001         29.35200001         55.30000001
        1754           2         41.85700001         30.15900001         56.21100001
        1755           3         43.29000001         29.35200001         55.30000001
        1756           4         44.72300001         30.15900001         56.21100001
        1757           5         40.42400001         30.96600001         55.30000001
        1758           6         41.85700001         31.77300001         56.21100001
        1759           7         43.29000001         30.96600001         55.30000001
        1760           8         44.72300001         31.77300001         56.21100001
        1761           1         40.42400001         32.58000001         55.30000001
        1762           2         41.85700001         33.38700001         56.21100001
        1763           3         43.29000001         32.58000001         55.30000001
        1764           4         44.72300001         33.38700001         56.21100001
        1765           5         40.42400001         34.19400001         55.30000001
        1766           6         41.85700001         35.00100001         56.21100001
        1767           7         43.29000001         34.19400001         55.30000001
        1768           8         44.72300001         35.00100001         56.21100001
        1769           1         40.42400001         35.80800001         55.30000001
        1770           2         41.85700001         36.61500001         56.21100001
        1771           3         43.29000001         35.80800001         55.30000001
        1772           4         44.72300001         36.61500001         56.21100001
        1773           5         40.42400001         37.42200001         55.30000001
        1774           6         41.85700001         38.22900001         56.21100001
        1775           7         43.29000001         37.42200001         55.30000001
        1776           8         44.72300001         38.22900001         56.21100001
        1777           1         40.42400001         39.03600001         55.30000001
        1778           2         41.85700001         39.84300001         56.21100001
        1779           3         43.29000001         39.03600001         55.30000001
        1780           4         44.72300001         39.84300001         56.21100001
        1781           5         40.42400001         40.65000001         55.30000001
        1782           6         41.85700001         41.45700001         56.21100001
        1783           7         43.29000001         40.65000001         55.30000001
        1784           8         44.72300001         41.45700001         56.21100001
        1785           1         40.42400001         42.26400001         55.30000001
        1786           2         41.85700001         43.07100001         56.21100001
        1787           3         43.29000001         42.26400001         55.30000001
        1788           4         44.72300001         43.07100001         56.21100001
        1789           5         40.42400001         43.87800001         55.30000001
        1790           6         41.85700001         44.68500001         56.21100001
        1791           7         43.29000001         43.87800001         55.30000001
        1792           8         44.72300001         44.68500001         56.21100001
        1793           1         40.42400001         45.49200001         55.30000001
        1794           2         41.85700001         46.29900001         56.21100001
        1795           3         43.29000001         45.49200001         55.30000001
        1796           4         44.72300001         46.29900001         56.21100001
        1797           5         40.42400001         47.10600001         55.30000001
        1798           6         41.85700001         47.91300001         56.21100001
        1799           7         43.29000001         47.10600001         55.30000001
        1800           8         44.72300001         47.91300001         56.21100001
        1801           1         40.42400001         48.72000001         55.30000001
        1802           2         41.85700001         49.52700001         56.21100001
        1803           3         43.29000001         48.72000001         55.30000001
        1804           4         44.72300001         49.52700001         56.21100001
        1805           5         40.42400001         50.33400001         55.30000001
        1806           6         41.85700001         51.14100001         56.21100001
        1807           7         43.29000001         50.33400001         55.30000001
        1808           8         44.72300001         51.14100001         56.21100001
        1809           1         40.42400001         51.94800001         55.30000001
        1810           2         41.85700001         52.75500001         56.21100001
        1811           3         43.29000001         51.94800001         55.30000001
        1812           4         44.72300001         52.75500001         56.21100001
        1813           5         40.42400001         53.56200001         55.30000001
        1814           6         41.85700001         54.36900001         56.21100001
        1815           7         43.29000001         53.56200001         55.30000001
        1816           8         44.72300001         54.36900001         56.21100001
        1817           1         40.42400001         55.17600001         55.30000001
        1818           2         41.85700001         55.98300001         56.21100001
        1819           3         43.29000001         55.17600001         55.30000001
        1820           4         44.72300001         55.98300001         56.21100001
        1821           5         40.42400001         56.79000001         55.30000001
        1822           6         41.85700001         57.59700001         56.21100001
        1823           7         43.29000001         56.79000001         55.30000001
        1824           8         44.72300001         57.59700001         56.21100001
        1825           1         40.42400001         58.40400001         55.30000001
        1826           2         41.85700001         59.21100001         56.21100001
        1827           3         43.29000001         58.40400001         55.30000001
        1828           4         44.72300001         59.21100001         56.21100001
        1829           5         40.42400001         60.01800001         55.30000001
        1830           6         41.85700001         60.82500001         56.21100001
        1831           7         43.29000001         60.01800001         55.30000001
        1832           8         44.72300001         60.82500001         56.21100001
        1833           1         40.42400001         61.63200001         55.30000001
        1834           2         41.85700001         62.43900001         56.21100001
        1835           3         43.29000001         61.63200001         55.30000001
        1836           4         44.72300001         62.43900001         56.21100001
        1837           5         40.42400001         63.24600001         55.30000001
        1838           6         41.85700001         64.05300001         56.21100001
        1839           7         43.29000001         63.24600001         55.30000001
        1840           8         44.72300001         64.05300001         56.21100001
        1841           1         40.42400001         64.86000001         55.30000001
        1842           2         41.85700001         65.66700001         56.21100001
        1843           3         43.29000001         64.86000001         55.30000001
        1844           4         44.72300001         65.66700001         56.21100001
        1845           5         40.42400001         66.47400001         55.30000001
        1846           6         41.85700001         67.28100001         56.21100001
        1847           7         43.29000001         66.47400001         55.30000001
        1848           8         44.72300001         67.28100001         56.21100001
        1849           1         40.42400001         68.08800001         55.30000001
        1850           2         41.85700001         68.89500001         56.21100001
        1851           3         43.29000001         68.08800001         55.30000001
        1852           4         44.72300001         68.89500001         56.21100001
        1853           5         40.42400001         69.70200001         55.30000001
        1854           6         41.85700001         70.50900001         56.21100001
        1855           7         43.29000001         69.70200001         55.30000001
        1856           8         44.72300001         70.50900001         56.21100001
        1857           1         40.42400001         71.31600001         55.30000001
        1858           2         41.85700001         72.12300001         56.21100001
        1859           3         43.29000001         71.31600001         55.30000001
        1860           4         44.72300001         72.12300001         56.21100001
        1861           5         40.42400001         72.93000001         55.30000001
        1862           6         41.85700001         73.73700001         56.21100001
        1863           7         43.29000001         72.93000001         55.30000001
        1864           8         44.72300001         73.73700001         56.21100001
        1865           1         40.42400001         74.54400001         55.30000001
        1866           2         41.85700001         75.35100001         56.21100001
        1867           3         43.29000001         74.54400001         55.30000001
        1868           4         44.72300001         75.35100001         56.21100001
        1869           5         40.42400001         76.15800001         55.30000001
        1870           6         41.85700001         76.96500001         56.21100001
        1871           7         43.29000001         76.15800001         55.30000001
        1872           8         44.72300001         76.96500001         56.21100001
        1873           1         40.42400001         77.77200001         55.30000001
        1874           2         41.85700001         78.57900001         56.21100001
        1875           3         43.29000001         77.77200001         55.30000001
        1876           4         44.72300001         78.57900001         56.21100001
        1877           5         40.42400001         79.38600001         55.30000001
        1878           6         41.85700001         80.19300001         56.21100001
        1879           7         43.29000001         79.38600001         55.30000001
        1880           8         44.72300001         80.19300001         56.21100001
        1881           1         40.42400001         81.00000001         55.30000001
        1882           2         41.85700001         81.80700001         56.21100001
        1883           3         43.29000001         81.00000001         55.30000001
        1884           4         44.72300001         81.80700001         56.21100001
        1885           5         40.42400001         82.61400001         55.30000001
        1886           6         41.85700001         83.42100001         56.21100001
        1887           7         43.29000001         82.61400001         55.30000001
        1888           8         44.72300001         83.42100001         56.21100001
        1889           1         40.42400001         84.22800001         55.30000001
        1890           2         41.85700001         85.03500001         56.21100001
        1891           3         43.29000001         84.22800001         55.30000001
        1892           4         44.72300001         85.03500001         56.21100001
        1893           5         40.42400001         85.84200001         55.30000001
        1894           6         41.85700001         86.64900001         56.21100001
        1895           7         43.29000001         85.84200001         55.30000001
        1896           8         44.72300001         86.64900001         56.21100001
        1897           1         40.42400001         87.45600001         55.30000001
        1898           2         41.85700001         88.26300001         56.21100001
        1899           3         43.29000001         87.45600001         55.30000001
        1900           4         44.72300001         88.26300001         56.21100001
        1901           5         40.42400001         89.07000001         55.30000001
        1902           6         41.85700001         89.87700001         56.21100001
        1903           7         43.29000001         89.07000001         55.30000001
        1904           8         44.72300001         89.87700001         56.21100001
        1905           1         40.42400001         90.68400001         55.30000001
        1906           2         41.85700001         91.49100001         56.21100001
        1907           3         43.29000001         90.68400001         55.30000001
        1908           4         44.72300001         91.49100001         56.21100001
        1909           5         40.42400001         92.29800001         55.30000001
        1910           6         41.85700001         93.10500001         56.21100001
        1911           7         43.29000001         92.29800001         55.30000001
        1912           8         44.72300001         93.10500001         56.21100001
        1913           1         40.42400001         93.91200001         55.30000001
        1914           2         41.85700001         94.71900001         56.21100001
        1915           3         43.29000001         93.91200001         55.30000001
        1916           4         44.72300001         94.71900001         56.21100001
        1917           5         40.42400001         95.52600001         55.30000001
        1918           6         41.85700001         96.33300001         56.21100001
        1919           7         43.29000001         95.52600001         55.30000001
        1920           8         44.72300001         96.33300001         56.21100001
        1921           1         46.15600001          0.30000001         55.30000001
        1922           2         47.58900001          1.10700001         56.21100001
        1923           3         49.02200001          0.30000001         55.30000001
        1924           4         50.45500001          1.10700001         56.21100001
        1925           5         46.15600001          1.91400001         55.30000001
        1926           6         47.58900001          2.72100001         56.21100001
        1927           7         49.02200001          1.91400001         55.30000001
        1928           8         50.45500001          2.72100001         56.21100001
        1929           1         46.15600001          3.52800001         55.30000001
        1930           2         47.58900001          4.33500001         56.21100001
        1931           3         49.02200001          3.52800001         55.30000001
        1932           4         50.45500001          4.33500001         56.21100001
        1933           5         46.15600001          5.14200001         55.30000001
        1934           6         47.58900001          5.94900001         56.21100001
        1935           7         49.02200001          5.14200001         55.30000001
        1936           8         50.45500001          5.94900001         56.21100001
        1937           1         46.15600001          6.75600001         55.30000001
        1938           2         47.58900001          7.56300001         56.21100001
        1939           3         49.02200001          6.75600001         55.30000001
        1940           4         50.45500001          7.56300001         56.21100001
        1941           5         46.15600001          8.37000001         55.30000001
        1942           6         47.58900001          9.17700001         56.21100001
        1943           7         49.02200001          8.37000001         55.30000001
        1944           8         50.45500001          9.17700001         56.21100001
        1945           1         46.15600001          9.98400001         55.30000001
        1946           2         47.58900001         10.79100001         56.21100001
        1947           3         49.02200001          9.98400001         55.30000001
        1948           4         50.45500001         10.79100001         56.21100001
        1949           5         46.15600001         11.59800001         55.30000001
        1950           6         47.58900001         12.40500001         56.21100001
        1951           7         49.02200001         11.59800001         55.30000001
        1952           8         50.45500001         12.40500001         56.21100001
        1953           1         46.15600001         13.21200001         55.30000001
        1954           2         47.58900001         14.01900001         56.21100001
        1955           3         49.02200001         13.21200001         55.30000001
        1956           4         50.45500001         14.01900001         56.21100001
        1957           5         46.15600001         14.82600001         55.30000001
        1958           6         47.58900001         15.63300001         56.21100001
        1959           7         49.02200001         14.82600001         55.30000001
        1960           8         50.45500001         15.63300001         56.21100001
        1961           1         46.15600001         16.44000001         55.30000001
        1962           2         47.58900001         17.24700001         56.21100001
        1963           3         49.02200001         16.44000001         55.30000001
        1964           4         50.45500001         17.24700001         56.21100001
        1965           5         46.15600001         18.05400001         55.30000001
        1966           6         47.58900001         18.86100001         56.21100001
        1967           7         49.02200001         18.05400001         55.30000001
        1968           8         50.45500001         18.86100001         56.21100001
        1969           1         46.15600001         19.66800001         55.30000001
        1970           2         47.58900001         20.47500001         56.21100001
        1971           3         49.02200001         19.66800001         55.30000001
        1972           4         50.45500001         20.47500001         56.21100001
        1973           5         46.15600001         21.28200001         55.30000001
        1974           6         47.58900001         22.08900001         56.21100001
        1975           7         49.02200001         21.28200001         55.30000001
        1976           8         50.45500001         22.08900001         56.21100001
        1977           1         46.15600001         22.89600001         55.30000001
        1978           2         47.58900001         23.70300001         56.21100001
        1979           3         49.02200001         22.89600001         55.30000001
        1980           4         50.45500001         23.70300001         56.21100001
        1981           5         46.15600001         24.51000001         55.30000001
        1982           6         47.58900001         25.31700001         56.21100001
        1983           7         49.02200001         24.51000001         55.30000001
        1984           8         50.45500001         25.31700001         56.21100001
        1985           1         46.15600001         26.12400001         55.30000001
        1986           2         47.58900001         26.93100001         56.21100001
        1987           3         49.02200001         26.12400001         55.30000001
        1988           4         50.45500001         26.93100001         56.21100001
        1989           5         46.15600001         27.73800001         55.30000001
        1990           6         47.58900001         28.54500001         56.21100001
        1991           7         49.02200001         27.73800001         55.30000001
        1992           8         50.45500001         28.54500001         56.21100001
        1993           1         46.15600001         29.35200001         55.30000001
        1994           2         47.58900001         30.15900001         56.21100001
        1995           3         49.02200001         29.35200001         55.30000001
        1996           4         50.45500001         30.15900001         56.21100001
        1997           5         46.15600001         30.96600001         55.30000001
        1998           6         47.58900001         31.77300001         56.21100001
        1999           7         49.02200001         30.96600001         55.30000001
        2000           8         50.45500001         31.77300001         56.21100001
        2001           1         46.15600001         32.58000001         55.30000001
        2002           2         47.58900001         33.38700001         56.21100001
        2003           3         49.02200001         32.58000001         55.30000001
        2004           4         50.45500001         33.38700001         56.21100001
        2005           5         46.15600001         34.19400001         55.30000001
        2006           6         47.58900001         35.00100001         56.21100001
        2007           7         49.02200001         34.19400001         55.30000001
        2008           8         50.45500001         35.00100001         56.21100001
        2009           1         46.15600001         35.80800001         55.30000001
        2010           2         47.58900001         36.61500001         56.21100001
        2011           3         49.02200001         35.80800001         55.30000001
        2012           4         50.45500001         36.61500001         56.21100001
        2013           5         46.15600001         37.42200001         55.30000001
        2014           6         47.58900001         38.22900001         56.21100001
        2015           7         49.02200001         37.42200001         55.30000001
        2016           8         50.45500001         38.22900001         56.21100001
        2017           1         46.15600001         39.03600001         55.30000001
        2018           2         47.58900001         39.84300001         56.21100001
        2019           3         49.02200001         39.03600001         55.30000001
        2020           4         50.45500001         39.84300001         56.21100001
        2021           5         46.15600001         40.65000001         55.30000001
        2022           6         47.58900001         41.45700001         56.21100001
        2023           7         49.02200001         40.65000001         55.30000001
        2024           8         50.45500001         41.45700001         56.21100001
        2025           1         46.15600001         42.26400001         55.30000001
        2026           2         47.58900001         43.07100001         56.21100001
        2027           3         49.02200001         42.26400001         55.30000001
        2028           4         50.45500001         43.07100001         56.21100001
        2029           5         46.15600001         43.87800001         55.30000001
        2030           6         47.58900001         44.68500001         56.21100001
        2031           7         49.02200001         43.87800001         55.30000001
        2032           8         50.45500001         44.68500001         56.21100001
        2033           1         46.15600001         45.49200001         55.30000001
        2034           2         47.58900001         46.29900001         56.21100001
        2035           3         49.02200001         45.49200001         55.30000001
        2036           4         50.45500001         46.29900001         56.21100001
        2037           5         46.15600001         47.10600001         55.30000001
        2038           6         47.58900001         47.91300001         56.21100001
        2039           7         49.02200001         47.10600001         55.30000001
        2040           8         50.45500001         47.91300001         56.21100001
        2041           1         46.15600001         48.72000001         55.30000001
        2042           2         47.58900001         49.52700001         56.21100001
        2043           3         49.02200001         48.72000001         55.30000001
        2044           4         50.45500001         49.52700001         56.21100001
        2045           5         46.15600001         50.33400001         55.30000001
        2046           6         47.58900001         51.14100001         56.21100001
        2047           7         49.02200001         50.33400001         55.30000001
        2048           8         50.45500001         51.14100001         56.21100001
        2049           1         46.15600001         51.94800001         55.30000001
        2050           2         47.58900001         52.75500001         56.21100001
        2051           3         49.02200001         51.94800001         55.30000001
        2052           4         50.45500001         52.75500001         56.21100001
        2053           5         46.15600001         53.56200001         55.30000001
        2054           6         47.58900001         54.36900001         56.21100001
        2055           7         49.02200001         53.56200001         55.30000001
        2056           8         50.45500001         54.36900001         56.21100001
        2057           1         46.15600001         55.17600001         55.30000001
        2058           2         47.58900001         55.98300001         56.21100001
        2059           3         49.02200001         55.17600001         55.30000001
        2060           4         50.45500001         55.98300001         56.21100001
        2061           5         46.15600001         56.79000001         55.30000001
        2062           6         47.58900001         57.59700001         56.21100001
        2063           7         49.02200001         56.79000001         55.30000001
        2064           8         50.45500001         57.59700001         56.21100001
        2065           1         46.15600001         58.40400001         55.30000001
        2066           2         47.58900001         59.21100001         56.21100001
        2067           3         49.02200001         58.40400001         55.30000001
        2068           4         50.45500001         59.21100001         56.21100001
        2069           5         46.15600001         60.01800001         55.30000001
        2070           6         47.58900001         60.82500001         56.21100001
        2071           7         49.02200001         60.01800001         55.30000001
        2072           8         50.45500001         60.82500001         56.21100001
        2073           1         46.15600001         61.63200001         55.30000001
        2074           2         47.58900001         62.43900001         56.21100001
        2075           3         49.02200001         61.63200001         55.30000001
        2076           4         50.45500001         62.43900001         56.21100001
        2077           5         46.15600001         63.24600001         55.30000001
        2078           6         47.58900001         64.05300001         56.21100001
        2079           7         49.02200001         63.24600001         55.30000001
        2080           8         50.45500001         64.05300001         56.21100001
        2081           1         46.15600001         64.86000001         55.30000001
        2082           2         47.58900001         65.66700001         56.21100001
        2083           3         49.02200001         64.86000001         55.30000001
        2084           4         50.45500001         65.66700001         56.21100001
        2085           5         46.15600001         66.47400001         55.30000001
        2086           6         47.58900001         67.28100001         56.21100001
        2087           7         49.02200001         66.47400001         55.30000001
        2088           8         50.45500001         67.28100001         56.21100001
        2089           1         46.15600001         68.08800001         55.30000001
        2090           2         47.58900001         68.89500001         56.21100001
        2091           3         49.02200001         68.08800001         55.30000001
        2092           4         50.45500001         68.89500001         56.21100001
        2093           5         46.15600001         69.70200001         55.30000001
        2094           6         47.58900001         70.50900001         56.21100001
        2095           7         49.02200001         69.70200001         55.30000001
        2096           8         50.45500001         70.50900001         56.21100001
        2097           1         46.15600001         71.31600001         55.30000001
        2098           2         47.58900001         72.12300001         56.21100001
        2099           3         49.02200001         71.31600001         55.30000001
        2100           4         50.45500001         72.12300001         56.21100001
        2101           5         46.15600001         72.93000001         55.30000001
        2102           6         47.58900001         73.73700001         56.21100001
        2103           7         49.02200001         72.93000001         55.30000001
        2104           8         50.45500001         73.73700001         56.21100001
        2105           1         46.15600001         74.54400001         55.30000001
        2106           2         47.58900001         75.35100001         56.21100001
        2107           3         49.02200001         74.54400001         55.30000001
        2108           4         50.45500001         75.35100001         56.21100001
        2109           5         46.15600001         76.15800001         55.30000001
        2110           6         47.58900001         76.96500001         56.21100001
        2111           7         49.02200001         76.15800001         55.30000001
        2112           8         50.45500001         76.96500001         56.21100001
        2113           1         46.15600001         77.77200001         55.30000001
        2114           2         47.58900001         78.57900001         56.21100001
        2115           3         49.02200001         77.77200001         55.30000001
        2116           4         50.45500001         78.57900001         56.21100001
        2117           5         46.15600001         79.38600001         55.30000001
        2118           6         47.58900001         80.19300001         56.21100001
        2119           7         49.02200001         79.38600001         55.30000001
        2120           8         50.45500001         80.19300001         56.21100001
        2121           1         46.15600001         81.00000001         55.30000001
        2122           2         47.58900001         81.80700001         56.21100001
        2123           3         49.02200001         81.00000001         55.30000001
        2124           4         50.45500001         81.80700001         56.21100001
        2125           5         46.15600001         82.61400001         55.30000001
        2126           6         47.58900001         83.42100001         56.21100001
        2127           7         49.02200001         82.61400001         55.30000001
        2128           8         50.45500001         83.42100001         56.21100001
        2129           1         46.15600001         84.22800001         55.30000001
        2130           2         47.58900001         85.03500001         56.21100001
        2131           3         49.02200001         84.22800001         55.30000001
        2132           4         50.45500001         85.03500001         56.21100001
        2133           5         46.15600001         85.84200001         55.30000001
        2134           6         47.58900001         86.64900001         56.21100001
        2135           7         49.02200001         85.84200001         55.30000001
        2136           8         50.45500001         86.64900001         56.21100001
        2137           1         46.15600001         87.45600001         55.30000001
        2138           2         47.58900001         88.26300001         56.21100001
        2139           3         49.02200001         87.45600001         55.30000001
        2140           4         50.45500001         88.26300001         56.21100001
        2141           5         46.15600001         89.07000001         55.30000001
        2142           6         47.58900001         89.87700001         56.21100001
        2143           7         49.02200001         89.07000001         55.30000001
        2144           8         50.45500001         89.87700001         56.21100001
        2145           1         46.15600001         90.68400001         55.30000001
        2146           2         47.58900001         91.49100001         56.21100001
        2147           3         49.02200001         90.68400001         55.30000001
        2148           4         50.45500001         91.49100001         56.21100001
        2149           5         46.15600001         92.29800001         55.30000001
        2150           6         47.58900001         93.10500001         56.21100001
        2151           7         49.02200001         92.29800001         55.30000001
        2152           8         50.45500001         93.10500001         56.21100001
        2153           1         46.15600001         93.91200001         55.30000001
        2154           2         47.58900001         94.71900001         56.21100001
        2155           3         49.02200001         93.91200001         55.30000001
        2156           4         50.45500001         94.71900001         56.21100001
        2157           5         46.15600001         95.52600001         55.30000001
        2158           6         47.58900001         96.33300001         56.21100001
        2159           7         49.02200001         95.52600001         55.30000001
        2160           8         50.45500001         96.33300001         56.21100001
        2161           1         51.88800001          0.30000001         55.30000001
        2162           2         53.32100001          1.10700001         56.21100001
        2163           3         54.75400001          0.30000001         55.30000001
        2164           4         56.18700001          1.10700001         56.21100001
        2165           5         51.88800001          1.91400001         55.30000001
        2166           6         53.32100001          2.72100001         56.21100001
        2167           7         54.75400001          1.91400001         55.30000001
        2168           8         56.18700001          2.72100001         56.21100001
        2169           1         51.88800001          3.52800001         55.30000001
        2170           2         53.32100001          4.33500001         56.21100001
        2171           3         54.75400001          3.52800001         55.30000001
        2172           4         56.18700001          4.33500001         56.21100001
        2173           5         51.88800001          5.14200001         55.30000001
        2174           6         53.32100001          5.94900001         56.21100001
        2175           7         54.75400001          5.14200001         55.30000001
        2176           8         56.18700001          5.94900001         56.21100001
        2177           1         51.88800001          6.75600001         55.30000001
        2178           2         53.32100001          7.56300001         56.21100001
        2179           3         54.75400001          6.75600001         55.30000001
        2180           4         56.18700001          7.56300001         56.21100001
        2181           5         51.88800001          8.37000001         55.30000001
        2182           6         53.32100001          9.17700001         56.21100001
        2183           7         54.75400001          8.37000001         55.30000001
        2184           8         56.18700001          9.17700001         56.21100001
        2185           1         51.88800001          9.98400001         55.30000001
        2186           2         53.32100001         10.79100001         56.21100001
        2187           3         54.75400001          9.98400001         55.30000001
        2188           4         56.18700001         10.79100001         56.21100001
        2189           5         51.88800001         11.59800001         55.30000001
        2190           6         53.32100001         12.40500001         56.21100001
        2191           7         54.75400001         11.59800001         55.30000001
        2192           8         56.18700001         12.40500001         56.21100001
        2193           1         51.88800001         13.21200001         55.30000001
        2194           2         53.32100001         14.01900001         56.21100001
        2195           3         54.75400001         13.21200001         55.30000001
        2196           4         56.18700001         14.01900001         56.21100001
        2197           5         51.88800001         14.82600001         55.30000001
        2198           6         53.32100001         15.63300001         56.21100001
        2199           7         54.75400001         14.82600001         55.30000001
        2200           8         56.18700001         15.63300001         56.21100001
        2201           1         51.88800001         16.44000001         55.30000001
        2202           2         53.32100001         17.24700001         56.21100001
        2203           3         54.75400001         16.44000001         55.30000001
        2204           4         56.18700001         17.24700001         56.21100001
        2205           5         51.88800001         18.05400001         55.30000001
        2206           6         53.32100001         18.86100001         56.21100001
        2207           7         54.75400001         18.05400001         55.30000001
        2208           8         56.18700001         18.86100001         56.21100001
        2209           1         51.88800001         19.66800001         55.30000001
        2210           2         53.32100001         20.47500001         56.21100001
        2211           3         54.75400001         19.66800001         55.30000001
        2212           4         56.18700001         20.47500001         56.21100001
        2213           5         51.88800001         21.28200001         55.30000001
        2214           6         53.32100001         22.08900001         56.21100001
        2215           7         54.75400001         21.28200001         55.30000001
        2216           8         56.18700001         22.08900001         56.21100001
        2217           1         51.88800001         22.89600001         55.30000001
        2218           2         53.32100001         23.70300001         56.21100001
        2219           3         54.75400001         22.89600001         55.30000001
        2220           4         56.18700001         23.70300001         56.21100001
        2221           5         51.88800001         24.51000001         55.30000001
        2222           6         53.32100001         25.31700001         56.21100001
        2223           7         54.75400001         24.51000001         55.30000001
        2224           8         56.18700001         25.31700001         56.21100001
        2225           1         51.88800001         26.12400001         55.30000001
        2226           2         53.32100001         26.93100001         56.21100001
        2227           3         54.75400001         26.12400001         55.30000001
        2228           4         56.18700001         26.93100001         56.21100001
        2229           5         51.88800001         27.73800001         55.30000001
        2230           6         53.32100001         28.54500001         56.21100001
        2231           7         54.75400001         27.73800001         55.30000001
        2232           8         56.18700001         28.54500001         56.21100001
        2233           1         51.88800001         29.35200001         55.30000001
        2234           2         53.32100001         30.15900001         56.21100001
        2235           3         54.75400001         29.35200001         55.30000001
        2236           4         56.18700001         30.15900001         56.21100001
        2237           5         51.88800001         30.96600001         55.30000001
        2238           6         53.32100001         31.77300001         56.21100001
        2239           7         54.75400001         30.96600001         55.30000001
        2240           8         56.18700001         31.77300001         56.21100001
        2241           1         51.88800001         32.58000001         55.30000001
        2242           2         53.32100001         33.38700001         56.21100001
        2243           3         54.75400001         32.58000001         55.30000001
        2244           4         56.18700001         33.38700001         56.21100001
        2245           5         51.88800001         34.19400001         55.30000001
        2246           6         53.32100001         35.00100001         56.21100001
        2247           7         54.75400001         34.19400001         55.30000001
        2248           8         56.18700001         35.00100001         56.21100001
        2249           1         51.88800001         35.80800001         55.30000001
        2250           2         53.32100001         36.61500001         56.21100001
        2251           3         54.75400001         35.80800001         55.30000001
        2252           4         56.18700001         36.61500001         56.21100001
        2253           5         51.88800001         37.42200001         55.30000001
        2254           6         53.32100001         38.22900001         56.21100001
        2255           7         54.75400001         37.42200001         55.30000001
        2256           8         56.18700001         38.22900001         56.21100001
        2257           1         51.88800001         39.03600001         55.30000001
        2258           2         53.32100001         39.84300001         56.21100001
        2259           3         54.75400001         39.03600001         55.30000001
        2260           4         56.18700001         39.84300001         56.21100001
        2261           5         51.88800001         40.65000001         55.30000001
        2262           6         53.32100001         41.45700001         56.21100001
        2263           7         54.75400001         40.65000001         55.30000001
        2264           8         56.18700001         41.45700001         56.21100001
        2265           1         51.88800001         42.26400001         55.30000001
        2266           2         53.32100001         43.07100001         56.21100001
        2267           3         54.75400001         42.26400001         55.30000001
        2268           4         56.18700001         43.07100001         56.21100001
        2269           5         51.88800001         43.87800001         55.30000001
        2270           6         53.32100001         44.68500001         56.21100001
        2271           7         54.75400001         43.87800001         55.30000001
        2272           8         56.18700001         44.68500001         56.21100001
        2273           1         51.88800001         45.49200001         55.30000001
        2274           2         53.32100001         46.29900001         56.21100001
        2275           3         54.75400001         45.49200001         55.30000001
        2276           4         56.18700001         46.29900001         56.21100001
        2277           5         51.88800001         47.10600001         55.30000001
        2278           6         53.32100001         47.91300001         56.21100001
        2279           7         54.75400001         47.10600001         55.30000001
        2280           8         56.18700001         47.91300001         56.21100001
        2281           1         51.88800001         48.72000001         55.30000001
        2282           2         53.32100001         49.52700001         56.21100001
        2283           3         54.75400001         48.72000001         55.30000001
        2284           4         56.18700001         49.52700001         56.21100001
        2285           5         51.88800001         50.33400001         55.30000001
        2286           6         53.32100001         51.14100001         56.21100001
        2287           7         54.75400001         50.33400001         55.30000001
        2288           8         56.18700001         51.14100001         56.21100001
        2289           1         51.88800001         51.94800001         55.30000001
        2290           2         53.32100001         52.75500001         56.21100001
        2291           3         54.75400001         51.94800001         55.30000001
        2292           4         56.18700001         52.75500001         56.21100001
        2293           5         51.88800001         53.56200001         55.30000001
        2294           6         53.32100001         54.36900001         56.21100001
        2295           7         54.75400001         53.56200001         55.30000001
        2296           8         56.18700001         54.36900001         56.21100001
        2297           1         51.88800001         55.17600001         55.30000001
        2298           2         53.32100001         55.98300001         56.21100001
        2299           3         54.75400001         55.17600001         55.30000001
        2300           4         56.18700001         55.98300001         56.21100001
        2301           5         51.88800001         56.79000001         55.30000001
        2302           6         53.32100001         57.59700001         56.21100001
        2303           7         54.75400001         56.79000001         55.30000001
        2304           8         56.18700001         57.59700001         56.21100001
        2305           1         51.88800001         58.40400001         55.30000001
        2306           2         53.32100001         59.21100001         56.21100001
        2307           3         54.75400001         58.40400001         55.30000001
        2308           4         56.18700001         59.21100001         56.21100001
        2309           5         51.88800001         60.01800001         55.30000001
        2310           6         53.32100001         60.82500001         56.21100001
        2311           7         54.75400001         60.01800001         55.30000001
        2312           8         56.18700001         60.82500001         56.21100001
        2313           1         51.88800001         61.63200001         55.30000001
        2314           2         53.32100001         62.43900001         56.21100001
        2315           3         54.75400001         61.63200001         55.30000001
        2316           4         56.18700001         62.43900001         56.21100001
        2317           5         51.88800001         63.24600001         55.30000001
        2318           6         53.32100001         64.05300001         56.21100001
        2319           7         54.75400001         63.24600001         55.30000001
        2320           8         56.18700001         64.05300001         56.21100001
        2321           1         51.88800001         64.86000001         55.30000001
        2322           2         53.32100001         65.66700001         56.21100001
        2323           3         54.75400001         64.86000001         55.30000001
        2324           4         56.18700001         65.66700001         56.21100001
        2325           5         51.88800001         66.47400001         55.30000001
        2326           6         53.32100001         67.28100001         56.21100001
        2327           7         54.75400001         66.47400001         55.30000001
        2328           8         56.18700001         67.28100001         56.21100001
        2329           1         51.88800001         68.08800001         55.30000001
        2330           2         53.32100001         68.89500001         56.21100001
        2331           3         54.75400001         68.08800001         55.30000001
        2332           4         56.18700001         68.89500001         56.21100001
        2333           5         51.88800001         69.70200001         55.30000001
        2334           6         53.32100001         70.50900001         56.21100001
        2335           7         54.75400001         69.70200001         55.30000001
        2336           8         56.18700001         70.50900001         56.21100001
        2337           1         51.88800001         71.31600001         55.30000001
        2338           2         53.32100001         72.12300001         56.21100001
        2339           3         54.75400001         71.31600001         55.30000001
        2340           4         56.18700001         72.12300001         56.21100001
        2341           5         51.88800001         72.93000001         55.30000001
        2342           6         53.32100001         73.73700001         56.21100001
        2343           7         54.75400001         72.93000001         55.30000001
        2344           8         56.18700001         73.73700001         56.21100001
        2345           1         51.88800001         74.54400001         55.30000001
        2346           2         53.32100001         75.35100001         56.21100001
        2347           3         54.75400001         74.54400001         55.30000001
        2348           4         56.18700001         75.35100001         56.21100001
        2349           5         51.88800001         76.15800001         55.30000001
        2350           6         53.32100001         76.96500001         56.21100001
        2351           7         54.75400001         76.15800001         55.30000001
        2352           8         56.18700001         76.96500001         56.21100001
        2353           1         51.88800001         77.77200001         55.30000001
        2354           2         53.32100001         78.57900001         56.21100001
        2355           3         54.75400001         77.77200001         55.30000001
        2356           4         56.18700001         78.57900001         56.21100001
        2357           5         51.88800001         79.38600001         55.30000001
        2358           6         53.32100001         80.19300001         56.21100001
        2359           7         54.75400001         79.38600001         55.30000001
        2360           8         56.18700001         80.19300001         56.21100001
        2361           1         51.88800001         81.00000001         55.30000001
        2362           2         53.32100001         81.80700001         56.21100001
        2363           3         54.75400001         81.00000001         55.30000001
        2364           4         56.18700001         81.80700001         56.21100001
        2365           5         51.88800001         82.61400001         55.30000001
        2366           6         53.32100001         83.42100001         56.21100001
        2367           7         54.75400001         82.61400001         55.30000001
        2368           8         56.18700001         83.42100001         56.21100001
        2369           1         51.88800001         84.22800001         55.30000001
        2370           2         53.32100001         85.03500001         56.21100001
        2371           3         54.75400001         84.22800001         55.30000001
        2372           4         56.18700001         85.03500001         56.21100001
        2373           5         51.88800001         85.84200001         55.30000001
        2374           6         53.32100001         86.64900001         56.21100001
        2375           7         54.75400001         85.84200001         55.30000001
        2376           8         56.18700001         86.64900001         56.21100001
        2377           1         51.88800001         87.45600001         55.30000001
        2378           2         53.32100001         88.26300001         56.21100001
        2379           3         54.75400001         87.45600001         55.30000001
        2380           4         56.18700001         88.26300001         56.21100001
        2381           5         51.88800001         89.07000001         55.30000001
        2382           6         53.32100001         89.87700001         56.21100001
        2383           7         54.75400001         89.07000001         55.30000001
        2384           8         56.18700001         89.87700001         56.21100001
        2385           1         51.88800001         90.68400001         55.30000001
        2386           2         53.32100001         91.49100001         56.21100001
        2387           3         54.75400001         90.68400001         55.30000001
        2388           4         56.18700001         91.49100001         56.21100001
        2389           5         51.88800001         92.29800001         55.30000001
        2390           6         53.32100001         93.10500001         56.21100001
        2391           7         54.75400001         92.29800001         55.30000001
        2392           8         56.18700001         93.10500001         56.21100001
        2393           1         51.88800001         93.91200001         55.30000001
        2394           2         53.32100001         94.71900001         56.21100001
        2395           3         54.75400001         93.91200001         55.30000001
        2396           4         56.18700001         94.71900001         56.21100001
        2397           5         51.88800001         95.52600001         55.30000001
        2398           6         53.32100001         96.33300001         56.21100001
        2399           7         54.75400001         95.52600001         55.30000001
        2400           8         56.18700001         96.33300001         56.21100001
        2401           1         57.62000001          0.30000001         55.30000001
        2402           2         59.05300001          1.10700001         56.21100001
        2403           3         60.48600001          0.30000001         55.30000001
        2404           4         61.91900001          1.10700001         56.21100001
        2405           5         57.62000001          1.91400001         55.30000001
        2406           6         59.05300001          2.72100001         56.21100001
        2407           7         60.48600001          1.91400001         55.30000001
        2408           8         61.91900001          2.72100001         56.21100001
        2409           1         57.62000001          3.52800001         55.30000001
        2410           2         59.05300001          4.33500001         56.21100001
        2411           3         60.48600001          3.52800001         55.30000001
        2412           4         61.91900001          4.33500001         56.21100001
        2413           5         57.62000001          5.14200001         55.30000001
        2414           6         59.05300001          5.94900001         56.21100001
        2415           7         60.48600001          5.14200001         55.30000001
        2416           8         61.91900001          5.94900001         56.21100001
        2417           1         57.62000001          6.75600001         55.30000001
        2418           2         59.05300001          7.56300001         56.21100001
        2419           3         60.48600001          6.75600001         55.30000001
        2420           4         61.91900001          7.56300001         56.21100001
        2421           5         57.62000001          8.37000001         55.30000001
        2422           6         59.05300001          9.17700001         56.21100001
        2423           7         60.48600001          8.37000001         55.30000001
        2424           8         61.91900001          9.17700001         56.21100001
        2425           1         57.62000001          9.98400001         55.30000001
        2426           2         59.05300001         10.79100001         56.21100001
        2427           3         60.48600001          9.98400001         55.30000001
        2428           4         61.91900001         10.79100001         56.21100001
        2429           5         57.62000001         11.59800001         55.30000001
        2430           6         59.05300001         12.40500001         56.21100001
        2431           7         60.48600001         11.59800001         55.30000001
        2432           8         61.91900001         12.40500001         56.21100001
        2433           1         57.62000001         13.21200001         55.30000001
        2434           2         59.05300001         14.01900001         56.21100001
        2435           3         60.48600001         13.21200001         55.30000001
        2436           4         61.91900001         14.01900001         56.21100001
        2437           5         57.62000001         14.82600001         55.30000001
        2438           6         59.05300001         15.63300001         56.21100001
        2439           7         60.48600001         14.82600001         55.30000001
        2440           8         61.91900001         15.63300001         56.21100001
        2441           1         57.62000001         16.44000001         55.30000001
        2442           2         59.05300001         17.24700001         56.21100001
        2443           3         60.48600001         16.44000001         55.30000001
        2444           4         61.91900001         17.24700001         56.21100001
        2445           5         57.62000001         18.05400001         55.30000001
        2446           6         59.05300001         18.86100001         56.21100001
        2447           7         60.48600001         18.05400001         55.30000001
        2448           8         61.91900001         18.86100001         56.21100001
        2449           1         57.62000001         19.66800001         55.30000001
        2450           2         59.05300001         20.47500001         56.21100001
        2451           3         60.48600001         19.66800001         55.30000001
        2452           4         61.91900001         20.47500001         56.21100001
        2453           5         57.62000001         21.28200001         55.30000001
        2454           6         59.05300001         22.08900001         56.21100001
        2455           7         60.48600001         21.28200001         55.30000001
        2456           8         61.91900001         22.08900001         56.21100001
        2457           1         57.62000001         22.89600001         55.30000001
        2458           2         59.05300001         23.70300001         56.21100001
        2459           3         60.48600001         22.89600001         55.30000001
        2460           4         61.91900001         23.70300001         56.21100001
        2461           5         57.62000001         24.51000001         55.30000001
        2462           6         59.05300001         25.31700001         56.21100001
        2463           7         60.48600001         24.51000001         55.30000001
        2464           8         61.91900001         25.31700001         56.21100001
        2465           1         57.62000001         26.12400001         55.30000001
        2466           2         59.05300001         26.93100001         56.21100001
        2467           3         60.48600001         26.12400001         55.30000001
        2468           4         61.91900001         26.93100001         56.21100001
        2469           5         57.62000001         27.73800001         55.30000001
        2470           6         59.05300001         28.54500001         56.21100001
        2471           7         60.48600001         27.73800001         55.30000001
        2472           8         61.91900001         28.54500001         56.21100001
        2473           1         57.62000001         29.35200001         55.30000001
        2474           2         59.05300001         30.15900001         56.21100001
        2475           3         60.48600001         29.35200001         55.30000001
        2476           4         61.91900001         30.15900001         56.21100001
        2477           5         57.62000001         30.96600001         55.30000001
        2478           6         59.05300001         31.77300001         56.21100001
        2479           7         60.48600001         30.96600001         55.30000001
        2480           8         61.91900001         31.77300001         56.21100001
        2481           1         57.62000001         32.58000001         55.30000001
        2482           2         59.05300001         33.38700001         56.21100001
        2483           3         60.48600001         32.58000001         55.30000001
        2484           4         61.91900001         33.38700001         56.21100001
        2485           5         57.62000001         34.19400001         55.30000001
        2486           6         59.05300001         35.00100001         56.21100001
        2487           7         60.48600001         34.19400001         55.30000001
        2488           8         61.91900001         35.00100001         56.21100001
        2489           1         57.62000001         35.80800001         55.30000001
        2490           2         59.05300001         36.61500001         56.21100001
        2491           3         60.48600001         35.80800001         55.30000001
        2492           4         61.91900001         36.61500001         56.21100001
        2493           5         57.62000001         37.42200001         55.30000001
        2494           6         59.05300001         38.22900001         56.21100001
        2495           7         60.48600001         37.42200001         55.30000001
        2496           8         61.91900001         38.22900001         56.21100001
        2497           1         57.62000001         39.03600001         55.30000001
        2498           2         59.05300001         39.84300001         56.21100001
        2499           3         60.48600001         39.03600001         55.30000001
        2500           4         61.91900001         39.84300001         56.21100001
        2501           5         57.62000001         40.65000001         55.30000001
        2502           6         59.05300001         41.45700001         56.21100001
        2503           7         60.48600001         40.65000001         55.30000001
        2504           8         61.91900001         41.45700001         56.21100001
        2505           1         57.62000001         42.26400001         55.30000001
        2506           2         59.05300001         43.07100001         56.21100001
        2507           3         60.48600001         42.26400001         55.30000001
        2508           4         61.91900001         43.07100001         56.21100001
        2509           5         57.62000001         43.87800001         55.30000001
        2510           6         59.05300001         44.68500001         56.21100001
        2511           7         60.48600001         43.87800001         55.30000001
        2512           8         61.91900001         44.68500001         56.21100001
        2513           1         57.62000001         45.49200001         55.30000001
        2514           2         59.05300001         46.29900001         56.21100001
        2515           3         60.48600001         45.49200001         55.30000001
        2516           4         61.91900001         46.29900001         56.21100001
        2517           5         57.62000001         47.10600001         55.30000001
        2518           6         59.05300001         47.91300001         56.21100001
        2519           7         60.48600001         47.10600001         55.30000001
        2520           8         61.91900001         47.91300001         56.21100001
        2521           1         57.62000001         48.72000001         55.30000001
        2522           2         59.05300001         49.52700001         56.21100001
        2523           3         60.48600001         48.72000001         55.30000001
        2524           4         61.91900001         49.52700001         56.21100001
        2525           5         57.62000001         50.33400001         55.30000001
        2526           6         59.05300001         51.14100001         56.21100001
        2527           7         60.48600001         50.33400001         55.30000001
        2528           8         61.91900001         51.14100001         56.21100001
        2529           1         57.62000001         51.94800001         55.30000001
        2530           2         59.05300001         52.75500001         56.21100001
        2531           3         60.48600001         51.94800001         55.30000001
        2532           4         61.91900001         52.75500001         56.21100001
        2533           5         57.62000001         53.56200001         55.30000001
        2534           6         59.05300001         54.36900001         56.21100001
        2535           7         60.48600001         53.56200001         55.30000001
        2536           8         61.91900001         54.36900001         56.21100001
        2537           1         57.62000001         55.17600001         55.30000001
        2538           2         59.05300001         55.98300001         56.21100001
        2539           3         60.48600001         55.17600001         55.30000001
        2540           4         61.91900001         55.98300001         56.21100001
        2541           5         57.62000001         56.79000001         55.30000001
        2542           6         59.05300001         57.59700001         56.21100001
        2543           7         60.48600001         56.79000001         55.30000001
        2544           8         61.91900001         57.59700001         56.21100001
        2545           1         57.62000001         58.40400001         55.30000001
        2546           2         59.05300001         59.21100001         56.21100001
        2547           3         60.48600001         58.40400001         55.30000001
        2548           4         61.91900001         59.21100001         56.21100001
        2549           5         57.62000001         60.01800001         55.30000001
        2550           6         59.05300001         60.82500001         56.21100001
        2551           7         60.48600001         60.01800001         55.30000001
        2552           8         61.91900001         60.82500001         56.21100001
        2553           1         57.62000001         61.63200001         55.30000001
        2554           2         59.05300001         62.43900001         56.21100001
        2555           3         60.48600001         61.63200001         55.30000001
        2556           4         61.91900001         62.43900001         56.21100001
        2557           5         57.62000001         63.24600001         55.30000001
        2558           6         59.05300001         64.05300001         56.21100001
        2559           7         60.48600001         63.24600001         55.30000001
        2560           8         61.91900001         64.05300001         56.21100001
        2561           1         57.62000001         64.86000001         55.30000001
        2562           2         59.05300001         65.66700001         56.21100001
        2563           3         60.48600001         64.86000001         55.30000001
        2564           4         61.91900001         65.66700001         56.21100001
        2565           5         57.62000001         66.47400001         55.30000001
        2566           6         59.05300001         67.28100001         56.21100001
        2567           7         60.48600001         66.47400001         55.30000001
        2568           8         61.91900001         67.28100001         56.21100001
        2569           1         57.62000001         68.08800001         55.30000001
        2570           2         59.05300001         68.89500001         56.21100001
        2571           3         60.48600001         68.08800001         55.30000001
        2572           4         61.91900001         68.89500001         56.21100001
        2573           5         57.62000001         69.70200001         55.30000001
        2574           6         59.05300001         70.50900001         56.21100001
        2575           7         60.48600001         69.70200001         55.30000001
        2576           8         61.91900001         70.50900001         56.21100001
        2577           1         57.62000001         71.31600001         55.30000001
        2578           2         59.05300001         72.12300001         56.21100001
        2579           3         60.48600001         71.31600001         55.30000001
        2580           4         61.91900001         72.12300001         56.21100001
        2581           5         57.62000001         72.93000001         55.30000001
        2582           6         59.05300001         73.73700001         56.21100001
        2583           7         60.48600001         72.93000001         55.30000001
        2584           8         61.91900001         73.73700001         56.21100001
        2585           1         57.62000001         74.54400001         55.30000001
        2586           2         59.05300001         75.35100001         56.21100001
        2587           3         60.48600001         74.54400001         55.30000001
        2588           4         61.91900001         75.35100001         56.21100001
        2589           5         57.62000001         76.15800001         55.30000001
        2590           6         59.05300001         76.96500001         56.21100001
        2591           7         60.48600001         76.15800001         55.30000001
        2592           8         61.91900001         76.96500001         56.21100001
        2593           1         57.62000001         77.77200001         55.30000001
        2594           2         59.05300001         78.57900001         56.21100001
        2595           3         60.48600001         77.77200001         55.30000001
        2596           4         61.91900001         78.57900001         56.21100001
        2597           5         57.62000001         79.38600001         55.30000001
        2598           6         59.05300001         80.19300001         56.21100001
        2599           7         60.48600001         79.38600001         55.30000001
        2600           8         61.91900001         80.19300001         56.21100001
        2601           1         57.62000001         81.00000001         55.30000001
        2602           2         59.05300001         81.80700001         56.21100001
        2603           3         60.48600001         81.00000001         55.30000001
        2604           4         61.91900001         81.80700001         56.21100001
        2605           5         57.62000001         82.61400001         55.30000001
        2606           6         59.05300001         83.42100001         56.21100001
        2607           7         60.48600001         82.61400001         55.30000001
        2608           8         61.91900001         83.42100001         56.21100001
        2609           1         57.62000001         84.22800001         55.30000001
        2610           2         59.05300001         85.03500001         56.21100001
        2611           3         60.48600001         84.22800001         55.30000001
        2612           4         61.91900001         85.03500001         56.21100001
        2613           5         57.62000001         85.84200001         55.30000001
        2614           6         59.05300001         86.64900001         56.21100001
        2615           7         60.48600001         85.84200001         55.30000001
        2616           8         61.91900001         86.64900001         56.21100001
        2617           1         57.62000001         87.45600001         55.30000001
        2618           2         59.05300001         88.26300001         56.21100001
        2619           3         60.48600001         87.45600001         55.30000001
        2620           4         61.91900001         88.26300001         56.21100001
        2621           5         57.62000001         89.07000001         55.30000001
        2622           6         59.05300001         89.87700001         56.21100001
        2623           7         60.48600001         89.07000001         55.30000001
        2624           8         61.91900001         89.87700001         56.21100001
        2625           1         57.62000001         90.68400001         55.30000001
        2626           2         59.05300001         91.49100001         56.21100001
        2627           3         60.48600001         90.68400001         55.30000001
        2628           4         61.91900001         91.49100001         56.21100001
        2629           5         57.62000001         92.29800001         55.30000001
        2630           6         59.05300001         93.10500001         56.21100001
        2631           7         60.48600001         92.29800001         55.30000001
        2632           8         61.91900001         93.10500001         56.21100001
        2633           1         57.62000001         93.91200001         55.30000001
        2634           2         59.05300001         94.71900001         56.21100001
        2635           3         60.48600001         93.91200001         55.30000001
        2636           4         61.91900001         94.71900001         56.21100001
        2637           5         57.62000001         95.52600001         55.30000001
        2638           6         59.05300001         96.33300001         56.21100001
        2639           7         60.48600001         95.52600001         55.30000001
        2640           8         61.91900001         96.33300001         56.21100001
        2641           1         63.35200001          0.30000001         55.30000001
        2642           2         64.78500001          1.10700001         56.21100001
        2643           3         66.21800001          0.30000001         55.30000001
        2644           4         67.65100001          1.10700001         56.21100001
        2645           5         63.35200001          1.91400001         55.30000001
        2646           6         64.78500001          2.72100001         56.21100001
        2647           7         66.21800001          1.91400001         55.30000001
        2648           8         67.65100001          2.72100001         56.21100001
        2649           1         63.35200001          3.52800001         55.30000001
        2650           2         64.78500001          4.33500001         56.21100001
        2651           3         66.21800001          3.52800001         55.30000001
        2652           4         67.65100001          4.33500001         56.21100001
        2653           5         63.35200001          5.14200001         55.30000001
        2654           6         64.78500001          5.94900001         56.21100001
        2655           7         66.21800001          5.14200001         55.30000001
        2656           8         67.65100001          5.94900001         56.21100001
        2657           1         63.35200001          6.75600001         55.30000001
        2658           2         64.78500001          7.56300001         56.21100001
        2659           3         66.21800001          6.75600001         55.30000001
        2660           4         67.65100001          7.56300001         56.21100001
        2661           5         63.35200001          8.37000001         55.30000001
        2662           6         64.78500001          9.17700001         56.21100001
        2663           7         66.21800001          8.37000001         55.30000001
        2664           8         67.65100001          9.17700001         56.21100001
        2665           1         63.35200001          9.98400001         55.30000001
        2666           2         64.78500001         10.79100001         56.21100001
        2667           3         66.21800001          9.98400001         55.30000001
        2668           4         67.65100001         10.79100001         56.21100001
        2669           5         63.35200001         11.59800001         55.30000001
        2670           6         64.78500001         12.40500001         56.21100001
        2671           7         66.21800001         11.59800001         55.30000001
        2672           8         67.65100001         12.40500001         56.21100001
        2673           1         63.35200001         13.21200001         55.30000001
        2674           2         64.78500001         14.01900001         56.21100001
        2675           3         66.21800001         13.21200001         55.30000001
        2676           4         67.65100001         14.01900001         56.21100001
        2677           5         63.35200001         14.82600001         55.30000001
        2678           6         64.78500001         15.63300001         56.21100001
        2679           7         66.21800001         14.82600001         55.30000001
        2680           8         67.65100001         15.63300001         56.21100001
        2681           1         63.35200001         16.44000001         55.30000001
        2682           2         64.78500001         17.24700001         56.21100001
        2683           3         66.21800001         16.44000001         55.30000001
        2684           4         67.65100001         17.24700001         56.21100001
        2685           5         63.35200001         18.05400001         55.30000001
        2686           6         64.78500001         18.86100001         56.21100001
        2687           7         66.21800001         18.05400001         55.30000001
        2688           8         67.65100001         18.86100001         56.21100001
        2689           1         63.35200001         19.66800001         55.30000001
        2690           2         64.78500001         20.47500001         56.21100001
        2691           3         66.21800001         19.66800001         55.30000001
        2692           4         67.65100001         20.47500001         56.21100001
        2693           5         63.35200001         21.28200001         55.30000001
        2694           6         64.78500001         22.08900001         56.21100001
        2695           7         66.21800001         21.28200001         55.30000001
        2696           8         67.65100001         22.08900001         56.21100001
        2697           1         63.35200001         22.89600001         55.30000001
        2698           2         64.78500001         23.70300001         56.21100001
        2699           3         66.21800001         22.89600001         55.30000001
        2700           4         67.65100001         23.70300001         56.21100001
        2701           5         63.35200001         24.51000001         55.30000001
        2702           6         64.78500001         25.31700001         56.21100001
        2703           7         66.21800001         24.51000001         55.30000001
        2704           8         67.65100001         25.31700001         56.21100001
        2705           1         63.35200001         26.12400001         55.30000001
        2706           2         64.78500001         26.93100001         56.21100001
        2707           3         66.21800001         26.12400001         55.30000001
        2708           4         67.65100001         26.93100001         56.21100001
        2709           5         63.35200001         27.73800001         55.30000001
        2710           6         64.78500001         28.54500001         56.21100001
        2711           7         66.21800001         27.73800001         55.30000001
        2712           8         67.65100001         28.54500001         56.21100001
        2713           1         63.35200001         29.35200001         55.30000001
        2714           2         64.78500001         30.15900001         56.21100001
        2715           3         66.21800001         29.35200001         55.30000001
        2716           4         67.65100001         30.15900001         56.21100001
        2717           5         63.35200001         30.96600001         55.30000001
        2718           6         64.78500001         31.77300001         56.21100001
        2719           7         66.21800001         30.96600001         55.30000001
        2720           8         67.65100001         31.77300001         56.21100001
        2721           1         63.35200001         32.58000001         55.30000001
        2722           2         64.78500001         33.38700001         56.21100001
        2723           3         66.21800001         32.58000001         55.30000001
        2724           4         67.65100001         33.38700001         56.21100001
        2725           5         63.35200001         34.19400001         55.30000001
        2726           6         64.78500001         35.00100001         56.21100001
        2727           7         66.21800001         34.19400001         55.30000001
        2728           8         67.65100001         35.00100001         56.21100001
        2729           1         63.35200001         35.80800001         55.30000001
        2730           2         64.78500001         36.61500001         56.21100001
        2731           3         66.21800001         35.80800001         55.30000001
        2732           4         67.65100001         36.61500001         56.21100001
        2733           5         63.35200001         37.42200001         55.30000001
        2734           6         64.78500001         38.22900001         56.21100001
        2735           7         66.21800001         37.42200001         55.30000001
        2736           8         67.65100001         38.22900001         56.21100001
        2737           1         63.35200001         39.03600001         55.30000001
        2738           2         64.78500001         39.84300001         56.21100001
        2739           3         66.21800001         39.03600001         55.30000001
        2740           4         67.65100001         39.84300001         56.21100001
        2741           5         63.35200001         40.65000001         55.30000001
        2742           6         64.78500001         41.45700001         56.21100001
        2743           7         66.21800001         40.65000001         55.30000001
        2744           8         67.65100001         41.45700001         56.21100001
        2745           1         63.35200001         42.26400001         55.30000001
        2746           2         64.78500001         43.07100001         56.21100001
        2747           3         66.21800001         42.26400001         55.30000001
        2748           4         67.65100001         43.07100001         56.21100001
        2749           5         63.35200001         43.87800001         55.30000001
        2750           6         64.78500001         44.68500001         56.21100001
        2751           7         66.21800001         43.87800001         55.30000001
        2752           8         67.65100001         44.68500001         56.21100001
        2753           1         63.35200001         45.49200001         55.30000001
        2754           2         64.78500001         46.29900001         56.21100001
        2755           3         66.21800001         45.49200001         55.30000001
        2756           4         67.65100001         46.29900001         56.21100001
        2757           5         63.35200001         47.10600001         55.30000001
        2758           6         64.78500001         47.91300001         56.21100001
        2759           7         66.21800001         47.10600001         55.30000001
        2760           8         67.65100001         47.91300001         56.21100001
        2761           1         63.35200001         48.72000001         55.30000001
        2762           2         64.78500001         49.52700001         56.21100001
        2763           3         66.21800001         48.72000001         55.30000001
        2764           4         67.65100001         49.52700001         56.21100001
        2765           5         63.35200001         50.33400001         55.30000001
        2766           6         64.78500001         51.14100001         56.21100001
        2767           7         66.21800001         50.33400001         55.30000001
        2768           8         67.65100001         51.14100001         56.21100001
        2769           1         63.35200001         51.94800001         55.30000001
        2770           2         64.78500001         52.75500001         56.21100001
        2771           3         66.21800001         51.94800001         55.30000001
        2772           4         67.65100001         52.75500001         56.21100001
        2773           5         63.35200001         53.56200001         55.30000001
        2774           6         64.78500001         54.36900001         56.21100001
        2775           7         66.21800001         53.56200001         55.30000001
        2776           8         67.65100001         54.36900001         56.21100001
        2777           1         63.35200001         55.17600001         55.30000001
        2778           2         64.78500001         55.98300001         56.21100001
        2779           3         66.21800001         55.17600001         55.30000001
        2780           4         67.65100001         55.98300001         56.21100001
        2781           5         63.35200001         56.79000001         55.30000001
        2782           6         64.78500001         57.59700001         56.21100001
        2783           7         66.21800001         56.79000001         55.30000001
        2784           8         67.65100001         57.59700001         56.21100001
        2785           1         63.35200001         58.40400001         55.30000001
        2786           2         64.78500001         59.21100001         56.21100001
        2787           3         66.21800001         58.40400001         55.30000001
        2788           4         67.65100001         59.21100001         56.21100001
        2789           5         63.35200001         60.01800001         55.30000001
        2790           6         64.78500001         60.82500001         56.21100001
        2791           7         66.21800001         60.01800001         55.30000001
        2792           8         67.65100001         60.82500001         56.21100001
        2793           1         63.35200001         61.63200001         55.30000001
        2794           2         64.78500001         62.43900001         56.21100001
        2795           3         66.21800001         61.63200001         55.30000001
        2796           4         67.65100001         62.43900001         56.21100001
        2797           5         63.35200001         63.24600001         55.30000001
        2798           6         64.78500001         64.05300001         56.21100001
        2799           7         66.21800001         63.24600001         55.30000001
        2800           8         67.65100001         64.05300001         56.21100001
        2801           1         63.35200001         64.86000001         55.30000001
        2802           2         64.78500001         65.66700001         56.21100001
        2803           3         66.21800001         64.86000001         55.30000001
        2804           4         67.65100001         65.66700001         56.21100001
        2805           5         63.35200001         66.47400001         55.30000001
        2806           6         64.78500001         67.28100001         56.21100001
        2807           7         66.21800001         66.47400001         55.30000001
        2808           8         67.65100001         67.28100001         56.21100001
        2809           1         63.35200001         68.08800001         55.30000001
        2810           2         64.78500001         68.89500001         56.21100001
        2811           3         66.21800001         68.08800001         55.30000001
        2812           4         67.65100001         68.89500001         56.21100001
        2813           5         63.35200001         69.70200001         55.30000001
        2814           6         64.78500001         70.50900001         56.21100001
        2815           7         66.21800001         69.70200001         55.30000001
        2816           8         67.65100001         70.50900001         56.21100001
        2817           1         63.35200001         71.31600001         55.30000001
        2818           2         64.78500001         72.12300001         56.21100001
        2819           3         66.21800001         71.31600001         55.30000001
        2820           4         67.65100001         72.12300001         56.21100001
        2821           5         63.35200001         72.93000001         55.30000001
        2822           6         64.78500001         73.73700001         56.21100001
        2823           7         66.21800001         72.93000001         55.30000001
        2824           8         67.65100001         73.73700001         56.21100001
        2825           1         63.35200001         74.54400001         55.30000001
        2826           2         64.78500001         75.35100001         56.21100001
        2827           3         66.21800001         74.54400001         55.30000001
        2828           4         67.65100001         75.35100001         56.21100001
        2829           5         63.35200001         76.15800001         55.30000001
        2830           6         64.78500001         76.96500001         56.21100001
        2831           7         66.21800001         76.15800001         55.30000001
        2832           8         67.65100001         76.96500001         56.21100001
        2833           1         63.35200001         77.77200001         55.30000001
        2834           2         64.78500001         78.57900001         56.21100001
        2835           3         66.21800001         77.77200001         55.30000001
        2836           4         67.65100001         78.57900001         56.21100001
        2837           5         63.35200001         79.38600001         55.30000001
        2838           6         64.78500001         80.19300001         56.21100001
        2839           7         66.21800001         79.38600001         55.30000001
        2840           8         67.65100001         80.19300001         56.21100001
        2841           1         63.35200001         81.00000001         55.30000001
        2842           2         64.78500001         81.80700001         56.21100001
        2843           3         66.21800001         81.00000001         55.30000001
        2844           4         67.65100001         81.80700001         56.21100001
        2845           5         63.35200001         82.61400001         55.30000001
        2846           6         64.78500001         83.42100001         56.21100001
        2847           7         66.21800001         82.61400001         55.30000001
        2848           8         67.65100001         83.42100001         56.21100001
        2849           1         63.35200001         84.22800001         55.30000001
        2850           2         64.78500001         85.03500001         56.21100001
        2851           3         66.21800001         84.22800001         55.30000001
        2852           4         67.65100001         85.03500001         56.21100001
        2853           5         63.35200001         85.84200001         55.30000001
        2854           6         64.78500001         86.64900001         56.21100001
        2855           7         66.21800001         85.84200001         55.30000001
        2856           8         67.65100001         86.64900001         56.21100001
        2857           1         63.35200001         87.45600001         55.30000001
        2858           2         64.78500001         88.26300001         56.21100001
        2859           3         66.21800001         87.45600001         55.30000001
        2860           4         67.65100001         88.26300001         56.21100001
        2861           5         63.35200001         89.07000001         55.30000001
        2862           6         64.78500001         89.87700001         56.21100001
        2863           7         66.21800001         89.07000001         55.30000001
        2864           8         67.65100001         89.87700001         56.21100001
        2865           1         63.35200001         90.68400001         55.30000001
        2866           2         64.78500001         91.49100001         56.21100001
        2867           3         66.21800001         90.68400001         55.30000001
        2868           4         67.65100001         91.49100001         56.21100001
        2869           5         63.35200001         92.29800001         55.30000001
        2870           6         64.78500001         93.10500001         56.21100001
        2871           7         66.21800001         92.29800001         55.30000001
        2872           8         67.65100001         93.10500001         56.21100001
        2873           1         63.35200001         93.91200001         55.30000001
        2874           2         64.78500001         94.71900001         56.21100001
        2875           3         66.21800001         93.91200001         55.30000001
        2876           4         67.65100001         94.71900001         56.21100001
        2877           5         63.35200001         95.52600001         55.30000001
        2878           6         64.78500001         96.33300001         56.21100001
        2879           7         66.21800001         95.52600001         55.30000001
        2880           8         67.65100001         96.33300001         56.21100001
        2881           1         69.08400001          0.30000001         55.30000001
        2882           2         70.51700001          1.10700001         56.21100001
        2883           3         71.95000001          0.30000001         55.30000001
        2884           4         73.38300001          1.10700001         56.21100001
        2885           5         69.08400001          1.91400001         55.30000001
        2886           6         70.51700001          2.72100001         56.21100001
        2887           7         71.95000001          1.91400001         55.30000001
        2888           8         73.38300001          2.72100001         56.21100001
        2889           1         69.08400001          3.52800001         55.30000001
        2890           2         70.51700001          4.33500001         56.21100001
        2891           3         71.95000001          3.52800001         55.30000001
        2892           4         73.38300001          4.33500001         56.21100001
        2893           5         69.08400001          5.14200001         55.30000001
        2894           6         70.51700001          5.94900001         56.21100001
        2895           7         71.95000001          5.14200001         55.30000001
        2896           8         73.38300001          5.94900001         56.21100001
        2897           1         69.08400001          6.75600001         55.30000001
        2898           2         70.51700001          7.56300001         56.21100001
        2899           3         71.95000001          6.75600001         55.30000001
        2900           4         73.38300001          7.56300001         56.21100001
        2901           5         69.08400001          8.37000001         55.30000001
        2902           6         70.51700001          9.17700001         56.21100001
        2903           7         71.95000001          8.37000001         55.30000001
        2904           8         73.38300001          9.17700001         56.21100001
        2905           1         69.08400001          9.98400001         55.30000001
        2906           2         70.51700001         10.79100001         56.21100001
        2907           3         71.95000001          9.98400001         55.30000001
        2908           4         73.38300001         10.79100001         56.21100001
        2909           5         69.08400001         11.59800001         55.30000001
        2910           6         70.51700001         12.40500001         56.21100001
        2911           7         71.95000001         11.59800001         55.30000001
        2912           8         73.38300001         12.40500001         56.21100001
        2913           1         69.08400001         13.21200001         55.30000001
        2914           2         70.51700001         14.01900001         56.21100001
        2915           3         71.95000001         13.21200001         55.30000001
        2916           4         73.38300001         14.01900001         56.21100001
        2917           5         69.08400001         14.82600001         55.30000001
        2918           6         70.51700001         15.63300001         56.21100001
        2919           7         71.95000001         14.82600001         55.30000001
        2920           8         73.38300001         15.63300001         56.21100001
        2921           1         69.08400001         16.44000001         55.30000001
        2922           2         70.51700001         17.24700001         56.21100001
        2923           3         71.95000001         16.44000001         55.30000001
        2924           4         73.38300001         17.24700001         56.21100001
        2925           5         69.08400001         18.05400001         55.30000001
        2926           6         70.51700001         18.86100001         56.21100001
        2927           7         71.95000001         18.05400001         55.30000001
        2928           8         73.38300001         18.86100001         56.21100001
        2929           1         69.08400001         19.66800001         55.30000001
        2930           2         70.51700001         20.47500001         56.21100001
        2931           3         71.95000001         19.66800001         55.30000001
        2932           4         73.38300001         20.47500001         56.21100001
        2933           5         69.08400001         21.28200001         55.30000001
        2934           6         70.51700001         22.08900001         56.21100001
        2935           7         71.95000001         21.28200001         55.30000001
        2936           8         73.38300001         22.08900001         56.21100001
        2937           1         69.08400001         22.89600001         55.30000001
        2938           2         70.51700001         23.70300001         56.21100001
        2939           3         71.95000001         22.89600001         55.30000001
        2940           4         73.38300001         23.70300001         56.21100001
        2941           5         69.08400001         24.51000001         55.30000001
        2942           6         70.51700001         25.31700001         56.21100001
        2943           7         71.95000001         24.51000001         55.30000001
        2944           8         73.38300001         25.31700001         56.21100001
        2945           1         69.08400001         26.12400001         55.30000001
        2946           2         70.51700001         26.93100001         56.21100001
        2947           3         71.95000001         26.12400001         55.30000001
        2948           4         73.38300001         26.93100001         56.21100001
        2949           5         69.08400001         27.73800001         55.30000001
        2950           6         70.51700001         28.54500001         56.21100001
        2951           7         71.95000001         27.73800001         55.30000001
        2952           8         73.38300001         28.54500001         56.21100001
        2953           1         69.08400001         29.35200001         55.30000001
        2954           2         70.51700001         30.15900001         56.21100001
        2955           3         71.95000001         29.35200001         55.30000001
        2956           4         73.38300001         30.15900001         56.21100001
        2957           5         69.08400001         30.96600001         55.30000001
        2958           6         70.51700001         31.77300001         56.21100001
        2959           7         71.95000001         30.96600001         55.30000001
        2960           8         73.38300001         31.77300001         56.21100001
        2961           1         69.08400001         32.58000001         55.30000001
        2962           2         70.51700001         33.38700001         56.21100001
        2963           3         71.95000001         32.58000001         55.30000001
        2964           4         73.38300001         33.38700001         56.21100001
        2965           5         69.08400001         34.19400001         55.30000001
        2966           6         70.51700001         35.00100001         56.21100001
        2967           7         71.95000001         34.19400001         55.30000001
        2968           8         73.38300001         35.00100001         56.21100001
        2969           1         69.08400001         35.80800001         55.30000001
        2970           2         70.51700001         36.61500001         56.21100001
        2971           3         71.95000001         35.80800001         55.30000001
        2972           4         73.38300001         36.61500001         56.21100001
        2973           5         69.08400001         37.42200001         55.30000001
        2974           6         70.51700001         38.22900001         56.21100001
        2975           7         71.95000001         37.42200001         55.30000001
        2976           8         73.38300001         38.22900001         56.21100001
        2977           1         69.08400001         39.03600001         55.30000001
        2978           2         70.51700001         39.84300001         56.21100001
        2979           3         71.95000001         39.03600001         55.30000001
        2980           4         73.38300001         39.84300001         56.21100001
        2981           5         69.08400001         40.65000001         55.30000001
        2982           6         70.51700001         41.45700001         56.21100001
        2983           7         71.95000001         40.65000001         55.30000001
        2984           8         73.38300001         41.45700001         56.21100001
        2985           1         69.08400001         42.26400001         55.30000001
        2986           2         70.51700001         43.07100001         56.21100001
        2987           3         71.95000001         42.26400001         55.30000001
        2988           4         73.38300001         43.07100001         56.21100001
        2989           5         69.08400001         43.87800001         55.30000001
        2990           6         70.51700001         44.68500001         56.21100001
        2991           7         71.95000001         43.87800001         55.30000001
        2992           8         73.38300001         44.68500001         56.21100001
        2993           1         69.08400001         45.49200001         55.30000001
        2994           2         70.51700001         46.29900001         56.21100001
        2995           3         71.95000001         45.49200001         55.30000001
        2996           4         73.38300001         46.29900001         56.21100001
        2997           5         69.08400001         47.10600001         55.30000001
        2998           6         70.51700001         47.91300001         56.21100001
        2999           7         71.95000001         47.10600001         55.30000001
        3000           8         73.38300001         47.91300001         56.21100001
        3001           1         69.08400001         48.72000001         55.30000001
        3002           2         70.51700001         49.52700001         56.21100001
        3003           3         71.95000001         48.72000001         55.30000001
        3004           4         73.38300001         49.52700001         56.21100001
        3005           5         69.08400001         50.33400001         55.30000001
        3006           6         70.51700001         51.14100001         56.21100001
        3007           7         71.95000001         50.33400001         55.30000001
        3008           8         73.38300001         51.14100001         56.21100001
        3009           1         69.08400001         51.94800001         55.30000001
        3010           2         70.51700001         52.75500001         56.21100001
        3011           3         71.95000001         51.94800001         55.30000001
        3012           4         73.38300001         52.75500001         56.21100001
        3013           5         69.08400001         53.56200001         55.30000001
        3014           6         70.51700001         54.36900001         56.21100001
        3015           7         71.95000001         53.56200001         55.30000001
        3016           8         73.38300001         54.36900001         56.21100001
        3017           1         69.08400001         55.17600001         55.30000001
        3018           2         70.51700001         55.98300001         56.21100001
        3019           3         71.95000001         55.17600001         55.30000001
        3020           4         73.38300001         55.98300001         56.21100001
        3021           5         69.08400001         56.79000001         55.30000001
        3022           6         70.51700001         57.59700001         56.21100001
        3023           7         71.95000001         56.79000001         55.30000001
        3024           8         73.38300001         57.59700001         56.21100001
        3025           1         69.08400001         58.40400001         55.30000001
        3026           2         70.51700001         59.21100001         56.21100001
        3027           3         71.95000001         58.40400001         55.30000001
        3028           4         73.38300001         59.21100001         56.21100001
        3029           5         69.08400001         60.01800001         55.30000001
        3030           6         70.51700001         60.82500001         56.21100001
        3031           7         71.95000001         60.01800001         55.30000001
        3032           8         73.38300001         60.82500001         56.21100001
        3033           1         69.08400001         61.63200001         55.30000001
        3034           2         70.51700001         62.43900001         56.21100001
        3035           3         71.95000001         61.63200001         55.30000001
        3036           4         73.38300001         62.43900001         56.21100001
        3037           5         69.08400001         63.24600001         55.30000001
        3038           6         70.51700001         64.05300001         56.21100001
        3039           7         71.95000001         63.24600001         55.30000001
        3040           8         73.38300001         64.05300001         56.21100001
        3041           1         69.08400001         64.86000001         55.30000001
        3042           2         70.51700001         65.66700001         56.21100001
        3043           3         71.95000001         64.86000001         55.30000001
        3044           4         73.38300001         65.66700001         56.21100001
        3045           5         69.08400001         66.47400001         55.30000001
        3046           6         70.51700001         67.28100001         56.21100001
        3047           7         71.95000001         66.47400001         55.30000001
        3048           8         73.38300001         67.28100001         56.21100001
        3049           1         69.08400001         68.08800001         55.30000001
        3050           2         70.51700001         68.89500001         56.21100001
        3051           3         71.95000001         68.08800001         55.30000001
        3052           4         73.38300001         68.89500001         56.21100001
        3053           5         69.08400001         69.70200001         55.30000001
        3054           6         70.51700001         70.50900001         56.21100001
        3055           7         71.95000001         69.70200001         55.30000001
        3056           8         73.38300001         70.50900001         56.21100001
        3057           1         69.08400001         71.31600001         55.30000001
        3058           2         70.51700001         72.12300001         56.21100001
        3059           3         71.95000001         71.31600001         55.30000001
        3060           4         73.38300001         72.12300001         56.21100001
        3061           5         69.08400001         72.93000001         55.30000001
        3062           6         70.51700001         73.73700001         56.21100001
        3063           7         71.95000001         72.93000001         55.30000001
        3064           8         73.38300001         73.73700001         56.21100001
        3065           1         69.08400001         74.54400001         55.30000001
        3066           2         70.51700001         75.35100001         56.21100001
        3067           3         71.95000001         74.54400001         55.30000001
        3068           4         73.38300001         75.35100001         56.21100001
        3069           5         69.08400001         76.15800001         55.30000001
        3070           6         70.51700001         76.96500001         56.21100001
        3071           7         71.95000001         76.15800001         55.30000001
        3072           8         73.38300001         76.96500001         56.21100001
        3073           1         69.08400001         77.77200001         55.30000001
        3074           2         70.51700001         78.57900001         56.21100001
        3075           3         71.95000001         77.77200001         55.30000001
        3076           4         73.38300001         78.57900001         56.21100001
        3077           5         69.08400001         79.38600001         55.30000001
        3078           6         70.51700001         80.19300001         56.21100001
        3079           7         71.95000001         79.38600001         55.30000001
        3080           8         73.38300001         80.19300001         56.21100001
        3081           1         69.08400001         81.00000001         55.30000001
        3082           2         70.51700001         81.80700001         56.21100001
        3083           3         71.95000001         81.00000001         55.30000001
        3084           4         73.38300001         81.80700001         56.21100001
        3085           5         69.08400001         82.61400001         55.30000001
        3086           6         70.51700001         83.42100001         56.21100001
        3087           7         71.95000001         82.61400001         55.30000001
        3088           8         73.38300001         83.42100001         56.21100001
        3089           1         69.08400001         84.22800001         55.30000001
        3090           2         70.51700001         85.03500001         56.21100001
        3091           3         71.95000001         84.22800001         55.30000001
        3092           4         73.38300001         85.03500001         56.21100001
        3093           5         69.08400001         85.84200001         55.30000001
        3094           6         70.51700001         86.64900001         56.21100001
        3095           7         71.95000001         85.84200001         55.30000001
        3096           8         73.38300001         86.64900001         56.21100001
        3097           1         69.08400001         87.45600001         55.30000001
        3098           2         70.51700001         88.26300001         56.21100001
        3099           3         71.95000001         87.45600001         55.30000001
        3100           4         73.38300001         88.26300001         56.21100001
        3101           5         69.08400001         89.07000001         55.30000001
        3102           6         70.51700001         89.87700001         56.21100001
        3103           7         71.95000001         89.07000001         55.30000001
        3104           8         73.38300001         89.87700001         56.21100001
        3105           1         69.08400001         90.68400001         55.30000001
        3106           2         70.51700001         91.49100001         56.21100001
        3107           3         71.95000001         90.68400001         55.30000001
        3108           4         73.38300001         91.49100001         56.21100001
        3109           5         69.08400001         92.29800001         55.30000001
        3110           6         70.51700001         93.10500001         56.21100001
        3111           7         71.95000001         92.29800001         55.30000001
        3112           8         73.38300001         93.10500001         56.21100001
        3113           1         69.08400001         93.91200001         55.30000001
        3114           2         70.51700001         94.71900001         56.21100001
        3115           3         71.95000001         93.91200001         55.30000001
        3116           4         73.38300001         94.71900001         56.21100001
        3117           5         69.08400001         95.52600001         55.30000001
        3118           6         70.51700001         96.33300001         56.21100001
        3119           7         71.95000001         95.52600001         55.30000001
        3120           8         73.38300001         96.33300001         56.21100001
        3121           1         74.81600001          0.30000001         55.30000001
        3122           2         76.24900001          1.10700001         56.21100001
        3123           3         77.68200001          0.30000001         55.30000001
        3124           4         79.11500001          1.10700001         56.21100001
        3125           5         74.81600001          1.91400001         55.30000001
        3126           6         76.24900001          2.72100001         56.21100001
        3127           7         77.68200001          1.91400001         55.30000001
        3128           8         79.11500001          2.72100001         56.21100001
        3129           1         74.81600001          3.52800001         55.30000001
        3130           2         76.24900001          4.33500001         56.21100001
        3131           3         77.68200001          3.52800001         55.30000001
        3132           4         79.11500001          4.33500001         56.21100001
        3133           5         74.81600001          5.14200001         55.30000001
        3134           6         76.24900001          5.94900001         56.21100001
        3135           7         77.68200001          5.14200001         55.30000001
        3136           8         79.11500001          5.94900001         56.21100001
        3137           1         74.81600001          6.75600001         55.30000001
        3138           2         76.24900001          7.56300001         56.21100001
        3139           3         77.68200001          6.75600001         55.30000001
        3140           4         79.11500001          7.56300001         56.21100001
        3141           5         74.81600001          8.37000001         55.30000001
        3142           6         76.24900001          9.17700001         56.21100001
        3143           7         77.68200001          8.37000001         55.30000001
        3144           8         79.11500001          9.17700001         56.21100001
        3145           1         74.81600001          9.98400001         55.30000001
        3146           2         76.24900001         10.79100001         56.21100001
        3147           3         77.68200001          9.98400001         55.30000001
        3148           4         79.11500001         10.79100001         56.21100001
        3149           5         74.81600001         11.59800001         55.30000001
        3150           6         76.24900001         12.40500001         56.21100001
        3151           7         77.68200001         11.59800001         55.30000001
        3152           8         79.11500001         12.40500001         56.21100001
        3153           1         74.81600001         13.21200001         55.30000001
        3154           2         76.24900001         14.01900001         56.21100001
        3155           3         77.68200001         13.21200001         55.30000001
        3156           4         79.11500001         14.01900001         56.21100001
        3157           5         74.81600001         14.82600001         55.30000001
        3158           6         76.24900001         15.63300001         56.21100001
        3159           7         77.68200001         14.82600001         55.30000001
        3160           8         79.11500001         15.63300001         56.21100001
        3161           1         74.81600001         16.44000001         55.30000001
        3162           2         76.24900001         17.24700001         56.21100001
        3163           3         77.68200001         16.44000001         55.30000001
        3164           4         79.11500001         17.24700001         56.21100001
        3165           5         74.81600001         18.05400001         55.30000001
        3166           6         76.24900001         18.86100001         56.21100001
        3167           7         77.68200001         18.05400001         55.30000001
        3168           8         79.11500001         18.86100001         56.21100001
        3169           1         74.81600001         19.66800001         55.30000001
        3170           2         76.24900001         20.47500001         56.21100001
        3171           3         77.68200001         19.66800001         55.30000001
        3172           4         79.11500001         20.47500001         56.21100001
        3173           5         74.81600001         21.28200001         55.30000001
        3174           6         76.24900001         22.08900001         56.21100001
        3175           7         77.68200001         21.28200001         55.30000001
        3176           8         79.11500001         22.08900001         56.21100001
        3177           1         74.81600001         22.89600001         55.30000001
        3178           2         76.24900001         23.70300001         56.21100001
        3179           3         77.68200001         22.89600001         55.30000001
        3180           4         79.11500001         23.70300001         56.21100001
        3181           5         74.81600001         24.51000001         55.30000001
        3182           6         76.24900001         25.31700001         56.21100001
        3183           7         77.68200001         24.51000001         55.30000001
        3184           8         79.11500001         25.31700001         56.21100001
        3185           1         74.81600001         26.12400001         55.30000001
        3186           2         76.24900001         26.93100001         56.21100001
        3187           3         77.68200001         26.12400001         55.30000001
        3188           4         79.11500001         26.93100001         56.21100001
        3189           5         74.81600001         27.73800001         55.30000001
        3190           6         76.24900001         28.54500001         56.21100001
        3191           7         77.68200001         27.73800001         55.30000001
        3192           8         79.11500001         28.54500001         56.21100001
        3193           1         74.81600001         29.35200001         55.30000001
        3194           2         76.24900001         30.15900001         56.21100001
        3195           3         77.68200001         29.35200001         55.30000001
        3196           4         79.11500001         30.15900001         56.21100001
        3197           5         74.81600001         30.96600001         55.30000001
        3198           6         76.24900001         31.77300001         56.21100001
        3199           7         77.68200001         30.96600001         55.30000001
        3200           8         79.11500001         31.77300001         56.21100001
        3201           1         74.81600001         32.58000001         55.30000001
        3202           2         76.24900001         33.38700001         56.21100001
        3203           3         77.68200001         32.58000001         55.30000001
        3204           4         79.11500001         33.38700001         56.21100001
        3205           5         74.81600001         34.19400001         55.30000001
        3206           6         76.24900001         35.00100001         56.21100001
        3207           7         77.68200001         34.19400001         55.30000001
        3208           8         79.11500001         35.00100001         56.21100001
        3209           1         74.81600001         35.80800001         55.30000001
        3210           2         76.24900001         36.61500001         56.21100001
        3211           3         77.68200001         35.80800001         55.30000001
        3212           4         79.11500001         36.61500001         56.21100001
        3213           5         74.81600001         37.42200001         55.30000001
        3214           6         76.24900001         38.22900001         56.21100001
        3215           7         77.68200001         37.42200001         55.30000001
        3216           8         79.11500001         38.22900001         56.21100001
        3217           1         74.81600001         39.03600001         55.30000001
        3218           2         76.24900001         39.84300001         56.21100001
        3219           3         77.68200001         39.03600001         55.30000001
        3220           4         79.11500001         39.84300001         56.21100001
        3221           5         74.81600001         40.65000001         55.30000001
        3222           6         76.24900001         41.45700001         56.21100001
        3223           7         77.68200001         40.65000001         55.30000001
        3224           8         79.11500001         41.45700001         56.21100001
        3225           1         74.81600001         42.26400001         55.30000001
        3226           2         76.24900001         43.07100001         56.21100001
        3227           3         77.68200001         42.26400001         55.30000001
        3228           4         79.11500001         43.07100001         56.21100001
        3229           5         74.81600001         43.87800001         55.30000001
        3230           6         76.24900001         44.68500001         56.21100001
        3231           7         77.68200001         43.87800001         55.30000001
        3232           8         79.11500001         44.68500001         56.21100001
        3233           1         74.81600001         45.49200001         55.30000001
        3234           2         76.24900001         46.29900001         56.21100001
        3235           3         77.68200001         45.49200001         55.30000001
        3236           4         79.11500001         46.29900001         56.21100001
        3237           5         74.81600001         47.10600001         55.30000001
        3238           6         76.24900001         47.91300001         56.21100001
        3239           7         77.68200001         47.10600001         55.30000001
        3240           8         79.11500001         47.91300001         56.21100001
        3241           1         74.81600001         48.72000001         55.30000001
        3242           2         76.24900001         49.52700001         56.21100001
        3243           3         77.68200001         48.72000001         55.30000001
        3244           4         79.11500001         49.52700001         56.21100001
        3245           5         74.81600001         50.33400001         55.30000001
        3246           6         76.24900001         51.14100001         56.21100001
        3247           7         77.68200001         50.33400001         55.30000001
        3248           8         79.11500001         51.14100001         56.21100001
        3249           1         74.81600001         51.94800001         55.30000001
        3250           2         76.24900001         52.75500001         56.21100001
        3251           3         77.68200001         51.94800001         55.30000001
        3252           4         79.11500001         52.75500001         56.21100001
        3253           5         74.81600001         53.56200001         55.30000001
        3254           6         76.24900001         54.36900001         56.21100001
        3255           7         77.68200001         53.56200001         55.30000001
        3256           8         79.11500001         54.36900001         56.21100001
        3257           1         74.81600001         55.17600001         55.30000001
        3258           2         76.24900001         55.98300001         56.21100001
        3259           3         77.68200001         55.17600001         55.30000001
        3260           4         79.11500001         55.98300001         56.21100001
        3261           5         74.81600001         56.79000001         55.30000001
        3262           6         76.24900001         57.59700001         56.21100001
        3263           7         77.68200001         56.79000001         55.30000001
        3264           8         79.11500001         57.59700001         56.21100001
        3265           1         74.81600001         58.40400001         55.30000001
        3266           2         76.24900001         59.21100001         56.21100001
        3267           3         77.68200001         58.40400001         55.30000001
        3268           4         79.11500001         59.21100001         56.21100001
        3269           5         74.81600001         60.01800001         55.30000001
        3270           6         76.24900001         60.82500001         56.21100001
        3271           7         77.68200001         60.01800001         55.30000001
        3272           8         79.11500001         60.82500001         56.21100001
        3273           1         74.81600001         61.63200001         55.30000001
        3274           2         76.24900001         62.43900001         56.21100001
        3275           3         77.68200001         61.63200001         55.30000001
        3276           4         79.11500001         62.43900001         56.21100001
        3277           5         74.81600001         63.24600001         55.30000001
        3278           6         76.24900001         64.05300001         56.21100001
        3279           7         77.68200001         63.24600001         55.30000001
        3280           8         79.11500001         64.05300001         56.21100001
        3281           1         74.81600001         64.86000001         55.30000001
        3282           2         76.24900001         65.66700001         56.21100001
        3283           3         77.68200001         64.86000001         55.30000001
        3284           4         79.11500001         65.66700001         56.21100001
        3285           5         74.81600001         66.47400001         55.30000001
        3286           6         76.24900001         67.28100001         56.21100001
        3287           7         77.68200001         66.47400001         55.30000001
        3288           8         79.11500001         67.28100001         56.21100001
        3289           1         74.81600001         68.08800001         55.30000001
        3290           2         76.24900001         68.89500001         56.21100001
        3291           3         77.68200001         68.08800001         55.30000001
        3292           4         79.11500001         68.89500001         56.21100001
        3293           5         74.81600001         69.70200001         55.30000001
        3294           6         76.24900001         70.50900001         56.21100001
        3295           7         77.68200001         69.70200001         55.30000001
        3296           8         79.11500001         70.50900001         56.21100001
        3297           1         74.81600001         71.31600001         55.30000001
        3298           2         76.24900001         72.12300001         56.21100001
        3299           3         77.68200001         71.31600001         55.30000001
        3300           4         79.11500001         72.12300001         56.21100001
        3301           5         74.81600001         72.93000001         55.30000001
        3302           6         76.24900001         73.73700001         56.21100001
        3303           7         77.68200001         72.93000001         55.30000001
        3304           8         79.11500001         73.73700001         56.21100001
        3305           1         74.81600001         74.54400001         55.30000001
        3306           2         76.24900001         75.35100001         56.21100001
        3307           3         77.68200001         74.54400001         55.30000001
        3308           4         79.11500001         75.35100001         56.21100001
        3309           5         74.81600001         76.15800001         55.30000001
        3310           6         76.24900001         76.96500001         56.21100001
        3311           7         77.68200001         76.15800001         55.30000001
        3312           8         79.11500001         76.96500001         56.21100001
        3313           1         74.81600001         77.77200001         55.30000001
        3314           2         76.24900001         78.57900001         56.21100001
        3315           3         77.68200001         77.77200001         55.30000001
        3316           4         79.11500001         78.57900001         56.21100001
        3317           5         74.81600001         79.38600001         55.30000001
        3318           6         76.24900001         80.19300001         56.21100001
        3319           7         77.68200001         79.38600001         55.30000001
        3320           8         79.11500001         80.19300001         56.21100001
        3321           1         74.81600001         81.00000001         55.30000001
        3322           2         76.24900001         81.80700001         56.21100001
        3323           3         77.68200001         81.00000001         55.30000001
        3324           4         79.11500001         81.80700001         56.21100001
        3325           5         74.81600001         82.61400001         55.30000001
        3326           6         76.24900001         83.42100001         56.21100001
        3327           7         77.68200001         82.61400001         55.30000001
        3328           8         79.11500001         83.42100001         56.21100001
        3329           1         74.81600001         84.22800001         55.30000001
        3330           2         76.24900001         85.03500001         56.21100001
        3331           3         77.68200001         84.22800001         55.30000001
        3332           4         79.11500001         85.03500001         56.21100001
        3333           5         74.81600001         85.84200001         55.30000001
        3334           6         76.24900001         86.64900001         56.21100001
        3335           7         77.68200001         85.84200001         55.30000001
        3336           8         79.11500001         86.64900001         56.21100001
        3337           1         74.81600001         87.45600001         55.30000001
        3338           2         76.24900001         88.26300001         56.21100001
        3339           3         77.68200001         87.45600001         55.30000001
        3340           4         79.11500001         88.26300001         56.21100001
        3341           5         74.81600001         89.07000001         55.30000001
        3342           6         76.24900001         89.87700001         56.21100001
        3343           7         77.68200001         89.07000001         55.30000001
        3344           8         79.11500001         89.87700001         56.21100001
        3345           1         74.81600001         90.68400001         55.30000001
        3346           2         76.24900001         91.49100001         56.21100001
        3347           3         77.68200001         90.68400001         55.30000001
        3348           4         79.11500001         91.49100001         56.21100001
        3349           5         74.81600001         92.29800001         55.30000001
        3350           6         76.24900001         93.10500001         56.21100001
        3351           7         77.68200001         92.29800001         55.30000001
        3352           8         79.11500001         93.10500001         56.21100001
        3353           1         74.81600001         93.91200001         55.30000001
        3354           2         76.24900001         94.71900001         56.21100001
        3355           3         77.68200001         93.91200001         55.30000001
        3356           4         79.11500001         94.71900001         56.21100001
        3357           5         74.81600001         95.52600001         55.30000001
        3358           6         76.24900001         96.33300001         56.21100001
        3359           7         77.68200001         95.52600001         55.30000001
        3360           8         79.11500001         96.33300001         56.21100001
        3361           1         80.54800001          0.30000001         55.30000001
        3362           2         81.98100001          1.10700001         56.21100001
        3363           3         83.41400001          0.30000001         55.30000001
        3364           4         84.84700001          1.10700001         56.21100001
        3365           5         80.54800001          1.91400001         55.30000001
        3366           6         81.98100001          2.72100001         56.21100001
        3367           7         83.41400001          1.91400001         55.30000001
        3368           8         84.84700001          2.72100001         56.21100001
        3369           1         80.54800001          3.52800001         55.30000001
        3370           2         81.98100001          4.33500001         56.21100001
        3371           3         83.41400001          3.52800001         55.30000001
        3372           4         84.84700001          4.33500001         56.21100001
        3373           5         80.54800001          5.14200001         55.30000001
        3374           6         81.98100001          5.94900001         56.21100001
        3375           7         83.41400001          5.14200001         55.30000001
        3376           8         84.84700001          5.94900001         56.21100001
        3377           1         80.54800001          6.75600001         55.30000001
        3378           2         81.98100001          7.56300001         56.21100001
        3379           3         83.41400001          6.75600001         55.30000001
        3380           4         84.84700001          7.56300001         56.21100001
        3381           5         80.54800001          8.37000001         55.30000001
        3382           6         81.98100001          9.17700001         56.21100001
        3383           7         83.41400001          8.37000001         55.30000001
        3384           8         84.84700001          9.17700001         56.21100001
        3385           1         80.54800001          9.98400001         55.30000001
        3386           2         81.98100001         10.79100001         56.21100001
        3387           3         83.41400001          9.98400001         55.30000001
        3388           4         84.84700001         10.79100001         56.21100001
        3389           5         80.54800001         11.59800001         55.30000001
        3390           6         81.98100001         12.40500001         56.21100001
        3391           7         83.41400001         11.59800001         55.30000001
        3392           8         84.84700001         12.40500001         56.21100001
        3393           1         80.54800001         13.21200001         55.30000001
        3394           2         81.98100001         14.01900001         56.21100001
        3395           3         83.41400001         13.21200001         55.30000001
        3396           4         84.84700001         14.01900001         56.21100001
        3397           5         80.54800001         14.82600001         55.30000001
        3398           6         81.98100001         15.63300001         56.21100001
        3399           7         83.41400001         14.82600001         55.30000001
        3400           8         84.84700001         15.63300001         56.21100001
        3401           1         80.54800001         16.44000001         55.30000001
        3402           2         81.98100001         17.24700001         56.21100001
        3403           3         83.41400001         16.44000001         55.30000001
        3404           4         84.84700001         17.24700001         56.21100001
        3405           5         80.54800001         18.05400001         55.30000001
        3406           6         81.98100001         18.86100001         56.21100001
        3407           7         83.41400001         18.05400001         55.30000001
        3408           8         84.84700001         18.86100001         56.21100001
        3409           1         80.54800001         19.66800001         55.30000001
        3410           2         81.98100001         20.47500001         56.21100001
        3411           3         83.41400001         19.66800001         55.30000001
        3412           4         84.84700001         20.47500001         56.21100001
        3413           5         80.54800001         21.28200001         55.30000001
        3414           6         81.98100001         22.08900001         56.21100001
        3415           7         83.41400001         21.28200001         55.30000001
        3416           8         84.84700001         22.08900001         56.21100001
        3417           1         80.54800001         22.89600001         55.30000001
        3418           2         81.98100001         23.70300001         56.21100001
        3419           3         83.41400001         22.89600001         55.30000001
        3420           4         84.84700001         23.70300001         56.21100001
        3421           5         80.54800001         24.51000001         55.30000001
        3422           6         81.98100001         25.31700001         56.21100001
        3423           7         83.41400001         24.51000001         55.30000001
        3424           8         84.84700001         25.31700001         56.21100001
        3425           1         80.54800001         26.12400001         55.30000001
        3426           2         81.98100001         26.93100001         56.21100001
        3427           3         83.41400001         26.12400001         55.30000001
        3428           4         84.84700001         26.93100001         56.21100001
        3429           5         80.54800001         27.73800001         55.30000001
        3430           6         81.98100001         28.54500001         56.21100001
        3431           7         83.41400001         27.73800001         55.30000001
        3432           8         84.84700001         28.54500001         56.21100001
        3433           1         80.54800001         29.35200001         55.30000001
        3434           2         81.98100001         30.15900001         56.21100001
        3435           3         83.41400001         29.35200001         55.30000001
        3436           4         84.84700001         30.15900001         56.21100001
        3437           5         80.54800001         30.96600001         55.30000001
        3438           6         81.98100001         31.77300001         56.21100001
        3439           7         83.41400001         30.96600001         55.30000001
        3440           8         84.84700001         31.77300001         56.21100001
        3441           1         80.54800001         32.58000001         55.30000001
        3442           2         81.98100001         33.38700001         56.21100001
        3443           3         83.41400001         32.58000001         55.30000001
        3444           4         84.84700001         33.38700001         56.21100001
        3445           5         80.54800001         34.19400001         55.30000001
        3446           6         81.98100001         35.00100001         56.21100001
        3447           7         83.41400001         34.19400001         55.30000001
        3448           8         84.84700001         35.00100001         56.21100001
        3449           1         80.54800001         35.80800001         55.30000001
        3450           2         81.98100001         36.61500001         56.21100001
        3451           3         83.41400001         35.80800001         55.30000001
        3452           4         84.84700001         36.61500001         56.21100001
        3453           5         80.54800001         37.42200001         55.30000001
        3454           6         81.98100001         38.22900001         56.21100001
        3455           7         83.41400001         37.42200001         55.30000001
        3456           8         84.84700001         38.22900001         56.21100001
        3457           1         80.54800001         39.03600001         55.30000001
        3458           2         81.98100001         39.84300001         56.21100001
        3459           3         83.41400001         39.03600001         55.30000001
        3460           4         84.84700001         39.84300001         56.21100001
        3461           5         80.54800001         40.65000001         55.30000001
        3462           6         81.98100001         41.45700001         56.21100001
        3463           7         83.41400001         40.65000001         55.30000001
        3464           8         84.84700001         41.45700001         56.21100001
        3465           1         80.54800001         42.26400001         55.30000001
        3466           2         81.98100001         43.07100001         56.21100001
        3467           3         83.41400001         42.26400001         55.30000001
        3468           4         84.84700001         43.07100001         56.21100001
        3469           5         80.54800001         43.87800001         55.30000001
        3470           6         81.98100001         44.68500001         56.21100001
        3471           7         83.41400001         43.87800001         55.30000001
        3472           8         84.84700001         44.68500001         56.21100001
        3473           1         80.54800001         45.49200001         55.30000001
        3474           2         81.98100001         46.29900001         56.21100001
        3475           3         83.41400001         45.49200001         55.30000001
        3476           4         84.84700001         46.29900001         56.21100001
        3477           5         80.54800001         47.10600001         55.30000001
        3478           6         81.98100001         47.91300001         56.21100001
        3479           7         83.41400001         47.10600001         55.30000001
        3480           8         84.84700001         47.91300001         56.21100001
        3481           1         80.54800001         48.72000001         55.30000001
        3482           2         81.98100001         49.52700001         56.21100001
        3483           3         83.41400001         48.72000001         55.30000001
        3484           4         84.84700001         49.52700001         56.21100001
        3485           5         80.54800001         50.33400001         55.30000001
        3486           6         81.98100001         51.14100001         56.21100001
        3487           7         83.41400001         50.33400001         55.30000001
        3488           8         84.84700001         51.14100001         56.21100001
        3489           1         80.54800001         51.94800001         55.30000001
        3490           2         81.98100001         52.75500001         56.21100001
        3491           3         83.41400001         51.94800001         55.30000001
        3492           4         84.84700001         52.75500001         56.21100001
        3493           5         80.54800001         53.56200001         55.30000001
        3494           6         81.98100001         54.36900001         56.21100001
        3495           7         83.41400001         53.56200001         55.30000001
        3496           8         84.84700001         54.36900001         56.21100001
        3497           1         80.54800001         55.17600001         55.30000001
        3498           2         81.98100001         55.98300001         56.21100001
        3499           3         83.41400001         55.17600001         55.30000001
        3500           4         84.84700001         55.98300001         56.21100001
        3501           5         80.54800001         56.79000001         55.30000001
        3502           6         81.98100001         57.59700001         56.21100001
        3503           7         83.41400001         56.79000001         55.30000001
        3504           8         84.84700001         57.59700001         56.21100001
        3505           1         80.54800001         58.40400001         55.30000001
        3506           2         81.98100001         59.21100001         56.21100001
        3507           3         83.41400001         58.40400001         55.30000001
        3508           4         84.84700001         59.21100001         56.21100001
        3509           5         80.54800001         60.01800001         55.30000001
        3510           6         81.98100001         60.82500001         56.21100001
        3511           7         83.41400001         60.01800001         55.30000001
        3512           8         84.84700001         60.82500001         56.21100001
        3513           1         80.54800001         61.63200001         55.30000001
        3514           2         81.98100001         62.43900001         56.21100001
        3515           3         83.41400001         61.63200001         55.30000001
        3516           4         84.84700001         62.43900001         56.21100001
        3517           5         80.54800001         63.24600001         55.30000001
        3518           6         81.98100001         64.05300001         56.21100001
        3519           7         83.41400001         63.24600001         55.30000001
        3520           8         84.84700001         64.05300001         56.21100001
        3521           1         80.54800001         64.86000001         55.30000001
        3522           2         81.98100001         65.66700001         56.21100001
        3523           3         83.41400001         64.86000001         55.30000001
        3524           4         84.84700001         65.66700001         56.21100001
        3525           5         80.54800001         66.47400001         55.30000001
        3526           6         81.98100001         67.28100001         56.21100001
        3527           7         83.41400001         66.47400001         55.30000001
        3528           8         84.84700001         67.28100001         56.21100001
        3529           1         80.54800001         68.08800001         55.30000001
        3530           2         81.98100001         68.89500001         56.21100001
        3531           3         83.41400001         68.08800001         55.30000001
        3532           4         84.84700001         68.89500001         56.21100001
        3533           5         80.54800001         69.70200001         55.30000001
        3534           6         81.98100001         70.50900001         56.21100001
        3535           7         83.41400001         69.70200001         55.30000001
        3536           8         84.84700001         70.50900001         56.21100001
        3537           1         80.54800001         71.31600001         55.30000001
        3538           2         81.98100001         72.12300001         56.21100001
        3539           3         83.41400001         71.31600001         55.30000001
        3540           4         84.84700001         72.12300001         56.21100001
        3541           5         80.54800001         72.93000001         55.30000001
        3542           6         81.98100001         73.73700001         56.21100001
        3543           7         83.41400001         72.93000001         55.30000001
        3544           8         84.84700001         73.73700001         56.21100001
        3545           1         80.54800001         74.54400001         55.30000001
        3546           2         81.98100001         75.35100001         56.21100001
        3547           3         83.41400001         74.54400001         55.30000001
        3548           4         84.84700001         75.35100001         56.21100001
        3549           5         80.54800001         76.15800001         55.30000001
        3550           6         81.98100001         76.96500001         56.21100001
        3551           7         83.41400001         76.15800001         55.30000001
        3552           8         84.84700001         76.96500001         56.21100001
        3553           1         80.54800001         77.77200001         55.30000001
        3554           2         81.98100001         78.57900001         56.21100001
        3555           3         83.41400001         77.77200001         55.30000001
        3556           4         84.84700001         78.57900001         56.21100001
        3557           5         80.54800001         79.38600001         55.30000001
        3558           6         81.98100001         80.19300001         56.21100001
        3559           7         83.41400001         79.38600001         55.30000001
        3560           8         84.84700001         80.19300001         56.21100001
        3561           1         80.54800001         81.00000001         55.30000001
        3562           2         81.98100001         81.80700001         56.21100001
        3563           3         83.41400001         81.00000001         55.30000001
        3564           4         84.84700001         81.80700001         56.21100001
        3565           5         80.54800001         82.61400001         55.30000001
        3566           6         81.98100001         83.42100001         56.21100001
        3567           7         83.41400001         82.61400001         55.30000001
        3568           8         84.84700001         83.42100001         56.21100001
        3569           1         80.54800001         84.22800001         55.30000001
        3570           2         81.98100001         85.03500001         56.21100001
        3571           3         83.41400001         84.22800001         55.30000001
        3572           4         84.84700001         85.03500001         56.21100001
        3573           5         80.54800001         85.84200001         55.30000001
        3574           6         81.98100001         86.64900001         56.21100001
        3575           7         83.41400001         85.84200001         55.30000001
        3576           8         84.84700001         86.64900001         56.21100001
        3577           1         80.54800001         87.45600001         55.30000001
        3578           2         81.98100001         88.26300001         56.21100001
        3579           3         83.41400001         87.45600001         55.30000001
        3580           4         84.84700001         88.26300001         56.21100001
        3581           5         80.54800001         89.07000001         55.30000001
        3582           6         81.98100001         89.87700001         56.21100001
        3583           7         83.41400001         89.07000001         55.30000001
        3584           8         84.84700001         89.87700001         56.21100001
        3585           1         80.54800001         90.68400001         55.30000001
        3586           2         81.98100001         91.49100001         56.21100001
        3587           3         83.41400001         90.68400001         55.30000001
        3588           4         84.84700001         91.49100001         56.21100001
        3589           5         80.54800001         92.29800001         55.30000001
        3590           6         81.98100001         93.10500001         56.21100001
        3591           7         83.41400001         92.29800001         55.30000001
        3592           8         84.84700001         93.10500001         56.21100001
        3593           1         80.54800001         93.91200001         55.30000001
        3594           2         81.98100001         94.71900001         56.21100001
        3595           3         83.41400001         93.91200001         55.30000001
        3596           4         84.84700001         94.71900001         56.21100001
        3597           5         80.54800001         95.52600001         55.30000001
        3598           6         81.98100001         96.33300001         56.21100001
        3599           7         83.41400001         95.52600001         55.30000001
        3600           8         84.84700001         96.33300001         56.21100001
        3601           1         86.28000001          0.30000001         55.30000001
        3602           2         87.71300001          1.10700001         56.21100001
        3603           3         89.14600001          0.30000001         55.30000001
        3604           4         90.57900001          1.10700001         56.21100001
        3605           5         86.28000001          1.91400001         55.30000001
        3606           6         87.71300001          2.72100001         56.21100001
        3607           7         89.14600001          1.91400001         55.30000001
        3608           8         90.57900001          2.72100001         56.21100001
        3609           1         86.28000001          3.52800001         55.30000001
        3610           2         87.71300001          4.33500001         56.21100001
        3611           3         89.14600001          3.52800001         55.30000001
        3612           4         90.57900001          4.33500001         56.21100001
        3613           5         86.28000001          5.14200001         55.30000001
        3614           6         87.71300001          5.94900001         56.21100001
        3615           7         89.14600001          5.14200001         55.30000001
        3616           8         90.57900001          5.94900001         56.21100001
        3617           1         86.28000001          6.75600001         55.30000001
        3618           2         87.71300001          7.56300001         56.21100001
        3619           3         89.14600001          6.75600001         55.30000001
        3620           4         90.57900001          7.56300001         56.21100001
        3621           5         86.28000001          8.37000001         55.30000001
        3622           6         87.71300001          9.17700001         56.21100001
        3623           7         89.14600001          8.37000001         55.30000001
        3624           8         90.57900001          9.17700001         56.21100001
        3625           1         86.28000001          9.98400001         55.30000001
        3626           2         87.71300001         10.79100001         56.21100001
        3627           3         89.14600001          9.98400001         55.30000001
        3628           4         90.57900001         10.79100001         56.21100001
        3629           5         86.28000001         11.59800001         55.30000001
        3630           6         87.71300001         12.40500001         56.21100001
        3631           7         89.14600001         11.59800001         55.30000001
        3632           8         90.57900001         12.40500001         56.21100001
        3633           1         86.28000001         13.21200001         55.30000001
        3634           2         87.71300001         14.01900001         56.21100001
        3635           3         89.14600001         13.21200001         55.30000001
        3636           4         90.57900001         14.01900001         56.21100001
        3637           5         86.28000001         14.82600001         55.30000001
        3638           6         87.71300001         15.63300001         56.21100001
        3639           7         89.14600001         14.82600001         55.30000001
        3640           8         90.57900001         15.63300001         56.21100001
        3641           1         86.28000001         16.44000001         55.30000001
        3642           2         87.71300001         17.24700001         56.21100001
        3643           3         89.14600001         16.44000001         55.30000001
        3644           4         90.57900001         17.24700001         56.21100001
        3645           5         86.28000001         18.05400001         55.30000001
        3646           6         87.71300001         18.86100001         56.21100001
        3647           7         89.14600001         18.05400001         55.30000001
        3648           8         90.57900001         18.86100001         56.21100001
        3649           1         86.28000001         19.66800001         55.30000001
        3650           2         87.71300001         20.47500001         56.21100001
        3651           3         89.14600001         19.66800001         55.30000001
        3652           4         90.57900001         20.47500001         56.21100001
        3653           5         86.28000001         21.28200001         55.30000001
        3654           6         87.71300001         22.08900001         56.21100001
        3655           7         89.14600001         21.28200001         55.30000001
        3656           8         90.57900001         22.08900001         56.21100001
        3657           1         86.28000001         22.89600001         55.30000001
        3658           2         87.71300001         23.70300001         56.21100001
        3659           3         89.14600001         22.89600001         55.30000001
        3660           4         90.57900001         23.70300001         56.21100001
        3661           5         86.28000001         24.51000001         55.30000001
        3662           6         87.71300001         25.31700001         56.21100001
        3663           7         89.14600001         24.51000001         55.30000001
        3664           8         90.57900001         25.31700001         56.21100001
        3665           1         86.28000001         26.12400001         55.30000001
        3666           2         87.71300001         26.93100001         56.21100001
        3667           3         89.14600001         26.12400001         55.30000001
        3668           4         90.57900001         26.93100001         56.21100001
        3669           5         86.28000001         27.73800001         55.30000001
        3670           6         87.71300001         28.54500001         56.21100001
        3671           7         89.14600001         27.73800001         55.30000001
        3672           8         90.57900001         28.54500001         56.21100001
        3673           1         86.28000001         29.35200001         55.30000001
        3674           2         87.71300001         30.15900001         56.21100001
        3675           3         89.14600001         29.35200001         55.30000001
        3676           4         90.57900001         30.15900001         56.21100001
        3677           5         86.28000001         30.96600001         55.30000001
        3678           6         87.71300001         31.77300001         56.21100001
        3679           7         89.14600001         30.96600001         55.30000001
        3680           8         90.57900001         31.77300001         56.21100001
        3681           1         86.28000001         32.58000001         55.30000001
        3682           2         87.71300001         33.38700001         56.21100001
        3683           3         89.14600001         32.58000001         55.30000001
        3684           4         90.57900001         33.38700001         56.21100001
        3685           5         86.28000001         34.19400001         55.30000001
        3686           6         87.71300001         35.00100001         56.21100001
        3687           7         89.14600001         34.19400001         55.30000001
        3688           8         90.57900001         35.00100001         56.21100001
        3689           1         86.28000001         35.80800001         55.30000001
        3690           2         87.71300001         36.61500001         56.21100001
        3691           3         89.14600001         35.80800001         55.30000001
        3692           4         90.57900001         36.61500001         56.21100001
        3693           5         86.28000001         37.42200001         55.30000001
        3694           6         87.71300001         38.22900001         56.21100001
        3695           7         89.14600001         37.42200001         55.30000001
        3696           8         90.57900001         38.22900001         56.21100001
        3697           1         86.28000001         39.03600001         55.30000001
        3698           2         87.71300001         39.84300001         56.21100001
        3699           3         89.14600001         39.03600001         55.30000001
        3700           4         90.57900001         39.84300001         56.21100001
        3701           5         86.28000001         40.65000001         55.30000001
        3702           6         87.71300001         41.45700001         56.21100001
        3703           7         89.14600001         40.65000001         55.30000001
        3704           8         90.57900001         41.45700001         56.21100001
        3705           1         86.28000001         42.26400001         55.30000001
        3706           2         87.71300001         43.07100001         56.21100001
        3707           3         89.14600001         42.26400001         55.30000001
        3708           4         90.57900001         43.07100001         56.21100001
        3709           5         86.28000001         43.87800001         55.30000001
        3710           6         87.71300001         44.68500001         56.21100001
        3711           7         89.14600001         43.87800001         55.30000001
        3712           8         90.57900001         44.68500001         56.21100001
        3713           1         86.28000001         45.49200001         55.30000001
        3714           2         87.71300001         46.29900001         56.21100001
        3715           3         89.14600001         45.49200001         55.30000001
        3716           4         90.57900001         46.29900001         56.21100001
        3717           5         86.28000001         47.10600001         55.30000001
        3718           6         87.71300001         47.91300001         56.21100001
        3719           7         89.14600001         47.10600001         55.30000001
        3720           8         90.57900001         47.91300001         56.21100001
        3721           1         86.28000001         48.72000001         55.30000001
        3722           2         87.71300001         49.52700001         56.21100001
        3723           3         89.14600001         48.72000001         55.30000001
        3724           4         90.57900001         49.52700001         56.21100001
        3725           5         86.28000001         50.33400001         55.30000001
        3726           6         87.71300001         51.14100001         56.21100001
        3727           7         89.14600001         50.33400001         55.30000001
        3728           8         90.57900001         51.14100001         56.21100001
        3729           1         86.28000001         51.94800001         55.30000001
        3730           2         87.71300001         52.75500001         56.21100001
        3731           3         89.14600001         51.94800001         55.30000001
        3732           4         90.57900001         52.75500001         56.21100001
        3733           5         86.28000001         53.56200001         55.30000001
        3734           6         87.71300001         54.36900001         56.21100001
        3735           7         89.14600001         53.56200001         55.30000001
        3736           8         90.57900001         54.36900001         56.21100001
        3737           1         86.28000001         55.17600001         55.30000001
        3738           2         87.71300001         55.98300001         56.21100001
        3739           3         89.14600001         55.17600001         55.30000001
        3740           4         90.57900001         55.98300001         56.21100001
        3741           5         86.28000001         56.79000001         55.30000001
        3742           6         87.71300001         57.59700001         56.21100001
        3743           7         89.14600001         56.79000001         55.30000001
        3744           8         90.57900001         57.59700001         56.21100001
        3745           1         86.28000001         58.40400001         55.30000001
        3746           2         87.71300001         59.21100001         56.21100001
        3747           3         89.14600001         58.40400001         55.30000001
        3748           4         90.57900001         59.21100001         56.21100001
        3749           5         86.28000001         60.01800001         55.30000001
        3750           6         87.71300001         60.82500001         56.21100001
        3751           7         89.14600001         60.01800001         55.30000001
        3752           8         90.57900001         60.82500001         56.21100001
        3753           1         86.28000001         61.63200001         55.30000001
        3754           2         87.71300001         62.43900001         56.21100001
        3755           3         89.14600001         61.63200001         55.30000001
        3756           4         90.57900001         62.43900001         56.21100001
        3757           5         86.28000001         63.24600001         55.30000001
        3758           6         87.71300001         64.05300001         56.21100001
        3759           7         89.14600001         63.24600001         55.30000001
        3760           8         90.57900001         64.05300001         56.21100001
        3761           1         86.28000001         64.86000001         55.30000001
        3762           2         87.71300001         65.66700001         56.21100001
        3763           3         89.14600001         64.86000001         55.30000001
        3764           4         90.57900001         65.66700001         56.21100001
        3765           5         86.28000001         66.47400001         55.30000001
        3766           6         87.71300001         67.28100001         56.21100001
        3767           7         89.14600001         66.47400001         55.30000001
        3768           8         90.57900001         67.28100001         56.21100001
        3769           1         86.28000001         68.08800001         55.30000001
        3770           2         87.71300001         68.89500001         56.21100001
        3771           3         89.14600001         68.08800001         55.30000001
        3772           4         90.57900001         68.89500001         56.21100001
        3773           5         86.28000001         69.70200001         55.30000001
        3774           6         87.71300001         70.50900001         56.21100001
        3775           7         89.14600001         69.70200001         55.30000001
        3776           8         90.57900001         70.50900001         56.21100001
        3777           1         86.28000001         71.31600001         55.30000001
        3778           2         87.71300001         72.12300001         56.21100001
        3779           3         89.14600001         71.31600001         55.30000001
        3780           4         90.57900001         72.12300001         56.21100001
        3781           5         86.28000001         72.93000001         55.30000001
        3782           6         87.71300001         73.73700001         56.21100001
        3783           7         89.14600001         72.93000001         55.30000001
        3784           8         90.57900001         73.73700001         56.21100001
        3785           1         86.28000001         74.54400001         55.30000001
        3786           2         87.71300001         75.35100001         56.21100001
        3787           3         89.14600001         74.54400001         55.30000001
        3788           4         90.57900001         75.35100001         56.21100001
        3789           5         86.28000001         76.15800001         55.30000001
        3790           6         87.71300001         76.96500001         56.21100001
        3791           7         89.14600001         76.15800001         55.30000001
        3792           8         90.57900001         76.96500001         56.21100001
        3793           1         86.28000001         77.77200001         55.30000001
        3794           2         87.71300001         78.57900001         56.21100001
        3795           3         89.14600001         77.77200001         55.30000001
        3796           4         90.57900001         78.57900001         56.21100001
        3797           5         86.28000001         79.38600001         55.30000001
        3798           6         87.71300001         80.19300001         56.21100001
        3799           7         89.14600001         79.38600001         55.30000001
        3800           8         90.57900001         80.19300001         56.21100001
        3801           1         86.28000001         81.00000001         55.30000001
        3802           2         87.71300001         81.80700001         56.21100001
        3803           3         89.14600001         81.00000001         55.30000001
        3804           4         90.57900001         81.80700001         56.21100001
        3805           5         86.28000001         82.61400001         55.30000001
        3806           6         87.71300001         83.42100001         56.21100001
        3807           7         89.14600001         82.61400001         55.30000001
        3808           8         90.57900001         83.42100001         56.21100001
        3809           1         86.28000001         84.22800001         55.30000001
        3810           2         87.71300001         85.03500001         56.21100001
        3811           3         89.14600001         84.22800001         55.30000001
        3812           4         90.57900001         85.03500001         56.21100001
        3813           5         86.28000001         85.84200001         55.30000001
        3814           6         87.71300001         86.64900001         56.21100001
        3815           7         89.14600001         85.84200001         55.30000001
        3816           8         90.57900001         86.64900001         56.21100001
        3817           1         86.28000001         87.45600001         55.30000001
        3818           2         87.71300001         88.26300001         56.21100001
        3819           3         89.14600001         87.45600001         55.30000001
        3820           4         90.57900001         88.26300001         56.21100001
        3821           5         86.28000001         89.07000001         55.30000001
        3822           6         87.71300001         89.87700001         56.21100001
        3823           7         89.14600001         89.07000001         55.30000001
        3824           8         90.57900001         89.87700001         56.21100001
        3825           1         86.28000001         90.68400001         55.30000001
        3826           2         87.71300001         91.49100001         56.21100001
        3827           3         89.14600001         90.68400001         55.30000001
        3828           4         90.57900001         91.49100001         56.21100001
        3829           5         86.28000001         92.29800001         55.30000001
        3830           6         87.71300001         93.10500001         56.21100001
        3831           7         89.14600001         92.29800001         55.30000001
        3832           8         90.57900001         93.10500001         56.21100001
        3833           1         86.28000001         93.91200001         55.30000001
        3834           2         87.71300001         94.71900001         56.21100001
        3835           3         89.14600001         93.91200001         55.30000001
        3836           4         90.57900001         94.71900001         56.21100001
        3837           5         86.28000001         95.52600001         55.30000001
        3838           6         87.71300001         96.33300001         56.21100001
        3839           7         89.14600001         95.52600001         55.30000001
        3840           8         90.57900001         96.33300001         56.21100001
        3841           1         92.01200001          0.30000001         55.30000001
        3842           2         93.44500001          1.10700001         56.21100001
        3843           3         94.87800001          0.30000001         55.30000001
        3844           4         96.31100001          1.10700001         56.21100001
        3845           5         92.01200001          1.91400001         55.30000001
        3846           6         93.44500001          2.72100001         56.21100001
        3847           7         94.87800001          1.91400001         55.30000001
        3848           8         96.31100001          2.72100001         56.21100001
        3849           1         92.01200001          3.52800001         55.30000001
        3850           2         93.44500001          4.33500001         56.21100001
        3851           3         94.87800001          3.52800001         55.30000001
        3852           4         96.31100001          4.33500001         56.21100001
        3853           5         92.01200001          5.14200001         55.30000001
        3854           6         93.44500001          5.94900001         56.21100001
        3855           7         94.87800001          5.14200001         55.30000001
        3856           8         96.31100001          5.94900001         56.21100001
        3857           1         92.01200001          6.75600001         55.30000001
        3858           2         93.44500001          7.56300001         56.21100001
        3859           3         94.87800001          6.75600001         55.30000001
        3860           4         96.31100001          7.56300001         56.21100001
        3861           5         92.01200001          8.37000001         55.30000001
        3862           6         93.44500001          9.17700001         56.21100001
        3863           7         94.87800001          8.37000001         55.30000001
        3864           8         96.31100001          9.17700001         56.21100001
        3865           1         92.01200001          9.98400001         55.30000001
        3866           2         93.44500001         10.79100001         56.21100001
        3867           3         94.87800001          9.98400001         55.30000001
        3868           4         96.31100001         10.79100001         56.21100001
        3869           5         92.01200001         11.59800001         55.30000001
        3870           6         93.44500001         12.40500001         56.21100001
        3871           7         94.87800001         11.59800001         55.30000001
        3872           8         96.31100001         12.40500001         56.21100001
        3873           1         92.01200001         13.21200001         55.30000001
        3874           2         93.44500001         14.01900001         56.21100001
        3875           3         94.87800001         13.21200001         55.30000001
        3876           4         96.31100001         14.01900001         56.21100001
        3877           5         92.01200001         14.82600001         55.30000001
        3878           6         93.44500001         15.63300001         56.21100001
        3879           7         94.87800001         14.82600001         55.30000001
        3880           8         96.31100001         15.63300001         56.21100001
        3881           1         92.01200001         16.44000001         55.30000001
        3882           2         93.44500001         17.24700001         56.21100001
        3883           3         94.87800001         16.44000001         55.30000001
        3884           4         96.31100001         17.24700001         56.21100001
        3885           5         92.01200001         18.05400001         55.30000001
        3886           6         93.44500001         18.86100001         56.21100001
        3887           7         94.87800001         18.05400001         55.30000001
        3888           8         96.31100001         18.86100001         56.21100001
        3889           1         92.01200001         19.66800001         55.30000001
        3890           2         93.44500001         20.47500001         56.21100001
        3891           3         94.87800001         19.66800001         55.30000001
        3892           4         96.31100001         20.47500001         56.21100001
        3893           5         92.01200001         21.28200001         55.30000001
        3894           6         93.44500001         22.08900001         56.21100001
        3895           7         94.87800001         21.28200001         55.30000001
        3896           8         96.31100001         22.08900001         56.21100001
        3897           1         92.01200001         22.89600001         55.30000001
        3898           2         93.44500001         23.70300001         56.21100001
        3899           3         94.87800001         22.89600001         55.30000001
        3900           4         96.31100001         23.70300001         56.21100001
        3901           5         92.01200001         24.51000001         55.30000001
        3902           6         93.44500001         25.31700001         56.21100001
        3903           7         94.87800001         24.51000001         55.30000001
        3904           8         96.31100001         25.31700001         56.21100001
        3905           1         92.01200001         26.12400001         55.30000001
        3906           2         93.44500001         26.93100001         56.21100001
        3907           3         94.87800001         26.12400001         55.30000001
        3908           4         96.31100001         26.93100001         56.21100001
        3909           5         92.01200001         27.73800001         55.30000001
        3910           6         93.44500001         28.54500001         56.21100001
        3911           7         94.87800001         27.73800001         55.30000001
        3912           8         96.31100001         28.54500001         56.21100001
        3913           1         92.01200001         29.35200001         55.30000001
        3914           2         93.44500001         30.15900001         56.21100001
        3915           3         94.87800001         29.35200001         55.30000001
        3916           4         96.31100001         30.15900001         56.21100001
        3917           5         92.01200001         30.96600001         55.30000001
        3918           6         93.44500001         31.77300001         56.21100001
        3919           7         94.87800001         30.96600001         55.30000001
        3920           8         96.31100001         31.77300001         56.21100001
        3921           1         92.01200001         32.58000001         55.30000001
        3922           2         93.44500001         33.38700001         56.21100001
        3923           3         94.87800001         32.58000001         55.30000001
        3924           4         96.31100001         33.38700001         56.21100001
        3925           5         92.01200001         34.19400001         55.30000001
        3926           6         93.44500001         35.00100001         56.21100001
        3927           7         94.87800001         34.19400001         55.30000001
        3928           8         96.31100001         35.00100001         56.21100001
        3929           1         92.01200001         35.80800001         55.30000001
        3930           2         93.44500001         36.61500001         56.21100001
        3931           3         94.87800001         35.80800001         55.30000001
        3932           4         96.31100001         36.61500001         56.21100001
        3933           5         92.01200001         37.42200001         55.30000001
        3934           6         93.44500001         38.22900001         56.21100001
        3935           7         94.87800001         37.42200001         55.30000001
        3936           8         96.31100001         38.22900001         56.21100001
        3937           1         92.01200001         39.03600001         55.30000001
        3938           2         93.44500001         39.84300001         56.21100001
        3939           3         94.87800001         39.03600001         55.30000001
        3940           4         96.31100001         39.84300001         56.21100001
        3941           5         92.01200001         40.65000001         55.30000001
        3942           6         93.44500001         41.45700001         56.21100001
        3943           7         94.87800001         40.65000001         55.30000001
        3944           8         96.31100001         41.45700001         56.21100001
        3945           1         92.01200001         42.26400001         55.30000001
        3946           2         93.44500001         43.07100001         56.21100001
        3947           3         94.87800001         42.26400001         55.30000001
        3948           4         96.31100001         43.07100001         56.21100001
        3949           5         92.01200001         43.87800001         55.30000001
        3950           6         93.44500001         44.68500001         56.21100001
        3951           7         94.87800001         43.87800001         55.30000001
        3952           8         96.31100001         44.68500001         56.21100001
        3953           1         92.01200001         45.49200001         55.30000001
        3954           2         93.44500001         46.29900001         56.21100001
        3955           3         94.87800001         45.49200001         55.30000001
        3956           4         96.31100001         46.29900001         56.21100001
        3957           5         92.01200001         47.10600001         55.30000001
        3958           6         93.44500001         47.91300001         56.21100001
        3959           7         94.87800001         47.10600001         55.30000001
        3960           8         96.31100001         47.91300001         56.21100001
        3961           1         92.01200001         48.72000001         55.30000001
        3962           2         93.44500001         49.52700001         56.21100001
        3963           3         94.87800001         48.72000001         55.30000001
        3964           4         96.31100001         49.52700001         56.21100001
        3965           5         92.01200001         50.33400001         55.30000001
        3966           6         93.44500001         51.14100001         56.21100001
        3967           7         94.87800001         50.33400001         55.30000001
        3968           8         96.31100001         51.14100001         56.21100001
        3969           1         92.01200001         51.94800001         55.30000001
        3970           2         93.44500001         52.75500001         56.21100001
        3971           3         94.87800001         51.94800001         55.30000001
        3972           4         96.31100001         52.75500001         56.21100001
        3973           5         92.01200001         53.56200001         55.30000001
        3974           6         93.44500001         54.36900001         56.21100001
        3975           7         94.87800001         53.56200001         55.30000001
        3976           8         96.31100001         54.36900001         56.21100001
        3977           1         92.01200001         55.17600001         55.30000001
        3978           2         93.44500001         55.98300001         56.21100001
        3979           3         94.87800001         55.17600001         55.30000001
        3980           4         96.31100001         55.98300001         56.21100001
        3981           5         92.01200001         56.79000001         55.30000001
        3982           6         93.44500001         57.59700001         56.21100001
        3983           7         94.87800001         56.79000001         55.30000001
        3984           8         96.31100001         57.59700001         56.21100001
        3985           1         92.01200001         58.40400001         55.30000001
        3986           2         93.44500001         59.21100001         56.21100001
        3987           3         94.87800001         58.40400001         55.30000001
        3988           4         96.31100001         59.21100001         56.21100001
        3989           5         92.01200001         60.01800001         55.30000001
        3990           6         93.44500001         60.82500001         56.21100001
        3991           7         94.87800001         60.01800001         55.30000001
        3992           8         96.31100001         60.82500001         56.21100001
        3993           1         92.01200001         61.63200001         55.30000001
        3994           2         93.44500001         62.43900001         56.21100001
        3995           3         94.87800001         61.63200001         55.30000001
        3996           4         96.31100001         62.43900001         56.21100001
        3997           5         92.01200001         63.24600001         55.30000001
        3998           6         93.44500001         64.05300001         56.21100001
        3999           7         94.87800001         63.24600001         55.30000001
        4000           8         96.31100001         64.05300001         56.21100001
        4001           1         92.01200001         64.86000001         55.30000001
        4002           2         93.44500001         65.66700001         56.21100001
        4003           3         94.87800001         64.86000001         55.30000001
        4004           4         96.31100001         65.66700001         56.21100001
        4005           5         92.01200001         66.47400001         55.30000001
        4006           6         93.44500001         67.28100001         56.21100001
        4007           7         94.87800001         66.47400001         55.30000001
        4008           8         96.31100001         67.28100001         56.21100001
        4009           1         92.01200001         68.08800001         55.30000001
        4010           2         93.44500001         68.89500001         56.21100001
        4011           3         94.87800001         68.08800001         55.30000001
        4012           4         96.31100001         68.89500001         56.21100001
        4013           5         92.01200001         69.70200001         55.30000001
        4014           6         93.44500001         70.50900001         56.21100001
        4015           7         94.87800001         69.70200001         55.30000001
        4016           8         96.31100001         70.50900001         56.21100001
        4017           1         92.01200001         71.31600001         55.30000001
        4018           2         93.44500001         72.12300001         56.21100001
        4019           3         94.87800001         71.31600001         55.30000001
        4020           4         96.31100001         72.12300001         56.21100001
        4021           5         92.01200001         72.93000001         55.30000001
        4022           6         93.44500001         73.73700001         56.21100001
        4023           7         94.87800001         72.93000001         55.30000001
        4024           8         96.31100001         73.73700001         56.21100001
        4025           1         92.01200001         74.54400001         55.30000001
        4026           2         93.44500001         75.35100001         56.21100001
        4027           3         94.87800001         74.54400001         55.30000001
        4028           4         96.31100001         75.35100001         56.21100001
        4029           5         92.01200001         76.15800001         55.30000001
        4030           6         93.44500001         76.96500001         56.21100001
        4031           7         94.87800001         76.15800001         55.30000001
        4032           8         96.31100001         76.96500001         56.21100001
        4033           1         92.01200001         77.77200001         55.30000001
        4034           2         93.44500001         78.57900001         56.21100001
        4035           3         94.87800001         77.77200001         55.30000001
        4036           4         96.31100001         78.57900001         56.21100001
        4037           5         92.01200001         79.38600001         55.30000001
        4038           6         93.44500001         80.19300001         56.21100001
        4039           7         94.87800001         79.38600001         55.30000001
        4040           8         96.31100001         80.19300001         56.21100001
        4041           1         92.01200001         81.00000001         55.30000001
        4042           2         93.44500001         81.80700001         56.21100001
        4043           3         94.87800001         81.00000001         55.30000001
        4044           4         96.31100001         81.80700001         56.21100001
        4045           5         92.01200001         82.61400001         55.30000001
        4046           6         93.44500001         83.42100001         56.21100001
        4047           7         94.87800001         82.61400001         55.30000001
        4048           8         96.31100001         83.42100001         56.21100001
        4049           1         92.01200001         84.22800001         55.30000001
        4050           2         93.44500001         85.03500001         56.21100001
        4051           3         94.87800001         84.22800001         55.30000001
        4052           4         96.31100001         85.03500001         56.21100001
        4053           5         92.01200001         85.84200001         55.30000001
        4054           6         93.44500001         86.64900001         56.21100001
        4055           7         94.87800001         85.84200001         55.30000001
        4056           8         96.31100001         86.64900001         56.21100001
        4057           1         92.01200001         87.45600001         55.30000001
        4058           2         93.44500001         88.26300001         56.21100001
        4059           3         94.87800001         87.45600001         55.30000001
        4060           4         96.31100001         88.26300001         56.21100001
        4061           5         92.01200001         89.07000001         55.30000001
        4062           6         93.44500001         89.87700001         56.21100001
        4063           7         94.87800001         89.07000001         55.30000001
        4064           8         96.31100001         89.87700001         56.21100001
        4065           1         92.01200001         90.68400001         55.30000001
        4066           2         93.44500001         91.49100001         56.21100001
        4067           3         94.87800001         90.68400001         55.30000001
        4068           4         96.31100001         91.49100001         56.21100001
        4069           5         92.01200001         92.29800001         55.30000001
        4070           6         93.44500001         93.10500001         56.21100001
        4071           7         94.87800001         92.29800001         55.30000001
        4072           8         96.31100001         93.10500001         56.21100001
        4073           1         92.01200001         93.91200001         55.30000001
        4074           2         93.44500001         94.71900001         56.21100001
        4075           3         94.87800001         93.91200001         55.30000001
        4076           4         96.31100001         94.71900001         56.21100001
        4077           5         92.01200001         95.52600001         55.30000001
        4078           6         93.44500001         96.33300001         56.21100001
        4079           7         94.87800001         95.52600001         55.30000001
        4080           8         96.31100001         96.33300001         56.21100001
