ITEM: TIMESTEP
100000
ITEM: NUMBER OF ATOMS
4080
ITEM: BOX BOUNDS xy xz yz pp pp pp
1.0421129800164408e-04 9.7443895788703671e+01 0.0000000000000000e+00
-7.9540274498413055e-05 9.6840079540271589e+01 0.0000000000000000e+00
-4.3308326624469373e-05 1.1000004330832434e+02 0.0000000000000000e+00
ITEM: ATOMS id type x y z
1 1 0.301677 0.300318 55.2932
2 2 1.72846 1.10964 56.2122
3 3 3.16705 0.304096 55.3232
5 5 0.300663 1.91485 55.2857
6 6 1.72457 2.72132 56.2147
7 7 3.16542 1.91635 55.3217
4 4 4.59527 1.10554 56.2342
8 8 4.59538 2.72063 56.2394
241 1 6.02473 0.30104 55.3208
245 5 6.02956 1.91572 55.3219
242 2 7.4595 1.10436 56.2206
243 3 8.89147 0.305173 55.3129
246 6 7.46794 2.71703 56.2312
247 7 8.89585 1.91669 55.3141
244 4 10.3318 1.10556 56.2276
248 8 10.3307 2.71805 56.2275
481 1 11.7653 0.298354 55.3103
485 5 11.7605 1.90893 55.3079
482 2 13.1964 1.10511 56.2245
483 3 14.6327 0.29902 55.3154
484 4 16.0646 1.10734 56.2258
486 6 13.1933 2.71856 56.2276
487 7 14.631 1.91612 55.3103
488 8 16.0622 2.71963 56.2361
721 1 17.4959 0.302264 55.314
722 2 18.9244 1.10761 56.2262
725 5 17.4966 1.91762 55.3192
726 6 18.9264 2.71636 56.2343
723 3 20.3683 0.302707 55.3183
724 4 21.7882 1.10905 56.2448
727 7 20.3647 1.91869 55.3238
728 8 21.7919 2.72146 56.2479
961 1 23.2251 0.300407 55.3344
962 2 24.6537 1.10587 56.2535
965 5 23.2288 1.91696 55.3359
966 6 24.6589 2.71823 56.2598
963 3 26.0918 0.300592 55.3504
964 4 27.5241 1.1079 56.2578
967 7 26.0924 1.91415 55.3487
968 8 27.5225 2.72086 56.264
1201 1 28.9539 0.297932 55.3539
1205 5 28.9564 1.91395 55.3501
1202 2 30.391 1.10595 56.2502
1203 3 31.8242 0.298459 55.3382
1206 6 30.3933 2.71717 56.2526
1207 7 31.8304 1.91488 55.3419
1204 4 33.2584 1.10928 56.2513
1208 8 33.2608 2.72368 56.2597
1441 1 34.6892 0.301434 55.3356
1445 5 34.6932 1.91707 55.3433
1442 2 36.1258 1.10618 56.2488
1443 3 37.5623 0.298472 55.3386
1446 6 36.129 2.72136 56.2418
1447 7 37.5595 1.91008 55.3346
1444 4 38.992 1.10494 56.2503
1448 8 38.994 2.72147 56.2427
1681 1 40.4252 0.300838 55.3397
1682 2 41.8583 1.10827 56.2486
1685 5 40.4238 1.91444 55.3382
1686 6 41.8582 2.71951 56.2476
1683 3 43.2865 0.298317 55.3277
1684 4 44.7213 1.10945 56.2322
1687 7 43.2895 1.91567 55.3307
1688 8 44.7243 2.72162 56.2372
1921 1 46.1569 0.304489 55.3221
1922 2 47.5878 1.10439 56.2389
1925 5 46.1584 1.91776 55.3272
1926 6 47.5887 2.72002 56.2424
9 1 0.301472 3.53009 55.2912
10 2 1.72998 4.33433 56.2239
11 3 3.1693 3.52965 55.3282
13 5 0.307225 5.14576 55.299
14 6 1.73317 5.94984 56.216
15 7 3.17095 5.14307 55.324
12 4 4.59829 4.3371 56.2406
16 8 4.59755 5.95337 56.2353
249 1 6.03254 3.52812 55.3311
253 5 6.03653 5.14248 55.3341
250 2 7.46573 4.33123 56.241
251 3 8.89703 3.53171 55.3244
254 6 7.46447 5.94941 56.2468
255 7 8.89877 5.14557 55.3355
252 4 10.334 4.33155 56.2368
256 8 10.3344 5.9451 56.2389
489 1 11.7627 3.52412 55.3137
493 5 11.7646 5.1402 55.322
490 2 13.2025 4.33293 56.2302
491 3 14.6345 3.53076 55.3173
492 4 16.0622 4.33458 56.2339
494 6 13.1981 5.94861 56.2408
495 7 14.6336 5.14835 55.3308
496 8 16.0601 5.94846 56.2472
729 1 17.4977 3.53208 55.3253
730 2 18.9254 4.33392 56.2471
733 5 17.4952 5.14687 55.3368
734 6 18.9231 5.94855 56.2626
731 3 20.362 3.53355 55.3408
732 4 21.7975 4.33729 56.2528
735 7 20.3602 5.14523 55.3439
736 8 21.7966 5.95057 56.262
969 1 23.2306 3.53063 55.3487
970 2 24.6609 4.33584 56.2669
973 5 23.2262 5.14523 55.3492
974 6 24.6628 5.95165 56.2624
971 3 26.0929 3.52884 55.3514
972 4 27.5293 4.33429 56.261
975 7 26.0975 5.1389 55.3604
976 8 27.5312 5.95144 56.2691
1209 1 28.9581 3.52652 55.3497
1213 5 28.9598 5.14121 55.3456
1210 2 30.3942 4.33217 56.2573
1211 3 31.825 3.52945 55.3402
1214 6 30.3932 5.94726 56.253
1215 7 31.8306 5.14365 55.3449
1212 4 33.2591 4.33635 56.2575
1216 8 33.2601 5.94719 56.2697
1449 1 34.6896 3.53101 55.3446
1453 5 34.6905 5.14318 55.3434
1450 2 36.1241 4.33753 56.248
1451 3 37.5569 3.52464 55.331
1454 6 36.1273 5.94882 56.2479
1455 7 37.5608 5.14392 55.3394
1452 4 38.9915 4.33175 56.2475
1456 8 38.9949 5.94771 56.2563
1689 1 40.4264 3.52877 55.3384
1690 2 41.8591 4.33521 56.2559
1693 5 40.4255 5.14484 55.3485
1694 6 41.8647 5.94935 56.2516
1691 3 43.2894 3.53126 55.3324
1692 4 44.7207 4.33765 56.2467
1695 7 43.2874 5.14372 55.3328
1696 8 44.7224 5.95229 56.2466
1929 1 46.1552 3.5292 55.334
1930 2 47.5909 4.33474 56.2413
1933 5 46.1533 5.14567 55.3318
1934 6 47.5904 5.94916 56.2379
17 1 0.301622 6.7595 55.3032
18 2 1.73401 7.56491 56.2179
19 3 3.17343 6.75626 55.313
21 5 0.30196 8.37415 55.3044
22 6 1.73637 9.17724 56.2144
23 7 3.17302 8.3711 55.3163
20 4 4.60576 7.56816 56.2304
24 8 4.60501 9.17865 56.2293
257 1 6.03776 6.75459 55.3241
261 5 6.03956 8.37155 55.3237
258 2 7.46612 7.55874 56.2444
259 3 8.90257 6.75893 55.3342
262 6 7.47017 9.17454 56.2412
263 7 8.90138 8.36934 55.3344
260 4 10.3315 7.55987 56.2483
264 8 10.3361 9.17676 56.2448
497 1 11.7653 6.75626 55.3318
501 5 11.7685 8.36981 55.3386
498 2 13.1996 7.56032 56.2478
499 3 14.6354 6.75753 55.3393
500 4 16.0609 7.56462 56.2621
502 6 13.2003 9.1745 56.2496
503 7 14.6271 8.36871 55.3407
504 8 16.0622 9.18022 56.2627
737 1 17.4976 6.76108 55.3442
738 2 18.93 7.56282 56.267
741 5 17.4993 8.37501 55.3517
742 6 18.9322 9.17777 56.2636
739 3 20.3621 6.75647 55.3594
740 4 21.7987 7.56587 56.2634
743 7 20.3648 8.37413 55.3527
744 8 21.7945 9.17777 56.2663
977 1 23.2311 6.75924 55.3587
978 2 24.661 7.56603 56.2689
981 5 23.2328 8.37276 55.3599
982 6 24.6671 9.18156 56.2622
979 3 26.1002 6.75262 55.3596
980 4 27.5284 7.56488 56.2638
983 7 26.0971 8.37166 55.3551
984 8 27.5255 9.17959 56.2679
1217 1 28.9619 6.75818 55.3514
1221 5 28.9608 8.37438 55.3538
1218 2 30.3976 7.56114 56.2645
1219 3 31.8274 6.75787 55.349
1222 6 30.3972 9.17685 56.266
1223 7 31.8329 8.36981 55.3605
1220 4 33.2617 7.55971 56.2678
1224 8 33.2629 9.17335 56.269
1457 1 34.6933 6.75678 55.356
1461 5 34.6901 8.37126 55.3504
1458 2 36.128 7.56072 56.2552
1459 3 37.5621 6.75841 55.345
1462 6 36.1292 9.17582 56.2624
1463 7 37.5597 8.36972 55.3493
1460 4 38.9909 7.56121 56.2613
1464 8 38.9945 9.17627 56.261
1697 1 40.4273 6.75367 55.3503
1698 2 41.8576 7.56349 56.2525
1701 5 40.425 8.37003 55.3484
1702 6 41.8591 9.17788 56.259
1699 3 43.288 6.75984 55.3335
1700 4 44.7232 7.56614 56.2501
1703 7 43.2893 8.37137 55.333
1704 8 44.7281 9.18207 56.2489
1937 1 46.1536 6.75917 55.3357
1938 2 47.5877 7.56421 56.2443
1941 5 46.154 8.37025 55.3374
1942 6 47.5921 9.18015 56.2424
25 1 0.304532 9.98497 55.3023
26 2 1.73005 10.7939 56.2157
27 3 3.1684 9.98461 55.3136
29 5 0.298596 11.5971 55.3035
30 6 1.73451 12.4093 56.2126
31 7 3.169 11.5994 55.3031
28 4 4.59978 10.7934 56.2245
32 8 4.60215 12.409 56.2094
265 1 6.04043 9.98345 55.3202
269 5 6.03862 11.6004 55.3121
266 2 7.47125 10.7908 56.234
267 3 8.90119 9.9832 55.3315
270 6 7.46629 12.405 56.2264
271 7 8.90417 11.5945 55.3315
268 4 10.3378 10.7895 56.2428
272 8 10.3312 12.4086 56.2372
505 1 11.7682 9.98244 55.3306
509 5 11.7609 11.5958 55.3291
506 2 13.1961 10.7897 56.2448
507 3 14.6327 9.9827 55.3472
508 4 16.0622 10.7987 56.2527
510 6 13.201 12.4042 56.246
511 7 14.6304 11.5979 55.3338
512 8 16.062 12.4098 56.2449
745 1 17.4961 9.98453 55.3455
746 2 18.9262 10.7902 56.265
749 5 17.4996 11.5995 55.3465
750 6 18.9253 12.4066 56.261
747 3 20.3605 9.98875 55.3531
748 4 21.7953 10.7911 56.2671
751 7 20.3645 11.5996 55.3567
752 8 21.7965 12.4067 56.2629
985 1 23.233 9.98746 55.3564
986 2 24.6659 10.7946 56.2655
989 5 23.2318 11.5986 55.3551
990 6 24.6629 12.406 56.2609
987 3 26.0977 9.98687 55.3445
988 4 27.5224 10.7929 56.2627
991 7 26.0965 11.602 55.3506
992 8 27.5284 12.4077 56.2702
1225 1 28.9598 9.98659 55.3582
1229 5 28.9628 11.5978 55.357
1226 2 30.3916 10.7922 56.2712
1227 3 31.8292 9.98246 55.3636
1230 6 30.3908 12.4095 56.2702
1231 7 31.8253 11.5958 55.3653
1228 4 33.2595 10.788 56.2741
1232 8 33.2607 12.404 56.267
1465 1 34.6921 9.98252 55.3555
1469 5 34.6934 11.5955 55.3559
1466 2 36.1287 10.7903 56.2612
1467 3 37.5584 9.98203 55.3439
1470 6 36.1256 12.4028 56.2637
1471 7 37.5553 11.5954 55.3463
1468 4 38.9903 10.7911 56.2617
1472 8 38.9919 12.4053 56.2597
1705 1 40.4263 9.98269 55.3448
1706 2 41.8602 10.7894 56.2587
1709 5 40.422 11.597 55.359
1710 6 41.8565 12.4035 56.2625
1707 3 43.291 9.98536 55.3428
1708 4 44.7259 10.7917 56.2445
1711 7 43.286 11.5958 55.3368
1712 8 44.7239 12.4026 56.2504
1945 1 46.1529 9.98349 55.3262
1946 2 47.5862 10.7936 56.2306
1949 5 46.1533 11.5981 55.331
1950 6 47.5862 12.4033 56.2355
33 1 0.299265 13.2115 55.2951
34 2 1.73651 14.0218 56.2129
35 3 3.16891 13.2132 55.2994
37 5 0.296189 14.8273 55.2994
39 7 3.16432 14.8289 55.301
36 4 4.60054 14.0243 56.2126
273 1 6.03637 13.2154 55.3078
277 5 6.03382 14.8292 55.3026
274 2 7.46677 14.019 56.221
275 3 8.90553 13.2089 55.3192
279 7 8.8976 14.8246 55.3099
276 4 10.3287 14.0203 56.235
513 1 11.765 13.2111 55.3246
517 5 11.7672 14.8244 55.3183
514 2 13.1939 14.0201 56.2466
515 3 14.633 13.2139 55.3392
516 4 16.0629 14.0206 56.2537
519 7 14.6285 14.8255 55.3381
753 1 17.4991 13.2142 55.3452
754 2 18.9286 14.0215 56.2544
757 5 17.4959 14.8298 55.3338
755 3 20.3576 13.215 55.3455
756 4 21.7893 14.0199 56.264
759 7 20.3608 14.8266 55.3408
993 1 23.2282 13.2113 55.3557
994 2 24.6608 14.0197 56.2692
997 5 23.2284 14.8235 55.3546
995 3 26.0911 13.215 55.3568
996 4 27.5251 14.0227 56.2516
999 7 26.0868 14.8261 55.3524
1233 1 28.9545 13.2106 55.3428
1237 5 28.9575 14.8243 55.3446
1234 2 30.3864 14.0225 56.256
1235 3 31.825 13.2125 55.3528
1239 7 31.823 14.8268 55.3459
1236 4 33.2602 14.0197 56.2615
1473 1 34.6905 13.2117 55.3539
1477 5 34.6841 14.8256 55.34
1474 2 36.125 14.0195 56.2548
1475 3 37.5532 13.2105 55.3467
1479 7 37.5546 14.8244 55.3357
1476 4 38.9882 14.0218 56.2504
1713 1 40.4254 13.2071 55.3515
1714 2 41.8547 14.0192 56.2617
1717 5 40.4213 14.8231 55.3424
1715 3 43.2877 13.2139 55.3526
1716 4 44.7218 14.0184 56.252
1719 7 43.286 14.8243 55.3447
1953 1 46.1513 13.2093 55.3319
1954 2 47.5833 14.0183 56.2413
1957 5 46.1502 14.8189 55.3303
38 6 1.73382 15.6352 56.2086
41 1 0.301706 16.4403 55.2856
42 2 1.72922 17.2504 56.191
43 3 3.16792 16.439 55.2956
45 5 0.298893 18.0552 55.2779
47 7 3.16352 18.0555 55.2842
40 8 4.59786 15.637 56.2072
44 4 4.59675 17.2509 56.1954
281 1 6.03302 16.4434 55.2983
285 5 6.03499 18.0554 55.2862
278 6 7.4632 15.6353 56.2186
282 2 7.46213 17.2524 56.2177
283 3 8.89659 16.4394 55.3079
287 7 8.8993 18.0519 55.3035
280 8 10.3275 15.6321 56.2199
284 4 10.3349 17.2457 56.2134
521 1 11.769 16.4372 55.3088
525 5 11.7644 18.0533 55.306
518 6 13.1931 15.6334 56.2366
520 8 16.0597 15.6354 56.2512
522 2 13.1899 17.2519 56.2261
523 3 14.6287 16.4423 55.3303
524 4 16.0589 17.25 56.2409
527 7 14.6314 18.0551 55.3242
758 6 18.9316 15.6379 56.2513
761 1 17.4973 16.442 55.3371
762 2 18.9317 17.2525 56.2457
765 5 17.4937 18.0557 55.3281
760 8 21.7929 15.6367 56.2524
763 3 20.3609 16.4428 55.3346
764 4 21.7917 17.2503 56.2464
767 7 20.3662 18.0583 55.3269
998 6 24.6584 15.6373 56.2611
1001 1 23.2277 16.44 55.3428
1002 2 24.6585 17.252 56.2488
1005 5 23.2294 18.0534 55.3323
1000 8 27.5223 15.6335 56.2545
1003 3 26.0892 16.4396 55.3366
1004 4 27.5245 17.2423 56.2461
1007 7 26.092 18.0551 55.3248
1241 1 28.9609 16.4366 55.3373
1245 5 28.96 18.0512 55.3327
1238 6 30.3896 15.6342 56.2527
1242 2 30.3894 17.2485 56.2469
1243 3 31.8252 16.4394 55.3478
1247 7 31.8217 18.0541 55.3426
1240 8 33.2591 15.6355 56.2559
1244 4 33.262 17.2473 56.2585
1481 1 34.6892 16.4393 55.3352
1485 5 34.6941 18.0508 55.3423
1478 6 36.1242 15.6326 56.2412
1482 2 36.1252 17.2421 56.2474
1483 3 37.5565 16.4394 55.3303
1487 7 37.5599 18.0531 55.3365
1480 8 38.9845 15.6349 56.2506
1484 4 38.9926 17.2512 56.2458
1718 6 41.857 15.6302 56.253
1721 1 40.4212 16.4377 55.3443
1722 2 41.8589 17.2472 56.2446
1725 5 40.4233 18.049 55.3292
1720 8 44.7214 15.6325 56.2386
1723 3 43.2872 16.4367 55.3259
1724 4 44.7194 17.2455 56.2327
1727 7 43.2878 18.0512 55.3206
1958 6 47.589 15.6339 56.2347
1961 1 46.1508 16.4365 55.3265
1962 2 47.5886 17.2445 56.2358
1965 5 46.1528 18.051 55.3292
46 6 1.73458 18.8631 56.1934
49 1 0.302295 19.6691 55.2799
50 2 1.73191 20.4792 56.1946
51 3 3.15973 19.6706 55.2799
53 5 0.300722 21.2822 55.2744
55 7 3.1618 21.2813 55.2698
48 8 4.59756 18.8629 56.19
52 4 4.59831 20.4785 56.183
289 1 6.033 19.6668 55.2805
293 5 6.03205 21.2824 55.2752
286 6 7.46473 18.8636 56.2054
290 2 7.46124 20.4767 56.1992
291 3 8.89513 19.6681 55.299
295 7 8.89557 21.2833 55.2907
288 8 10.3281 18.8618 56.2097
292 4 10.3292 20.4798 56.1995
529 1 11.7656 19.6708 55.301
533 5 11.7651 21.2845 55.2978
526 6 13.1898 18.8673 56.2227
528 8 16.0589 18.8668 56.2374
530 2 13.1908 20.4774 56.2196
531 3 14.6318 19.6704 55.32
532 4 16.0613 20.4821 56.2257
535 7 14.6299 21.2822 55.3128
766 6 18.9284 18.8671 56.2319
769 1 17.4893 19.6721 55.3257
770 2 18.9238 20.4815 56.2314
773 5 17.4925 21.2858 55.3179
768 8 21.794 18.8643 56.2359
771 3 20.3572 19.6714 55.3215
772 4 21.79 20.4792 56.2371
775 7 20.361 21.285 55.3206
1006 6 24.6639 18.8632 56.2331
1009 1 23.226 19.6668 55.3288
1010 2 24.6581 20.4774 56.2363
1013 5 23.2236 21.2807 55.3167
1008 8 27.5248 18.8575 56.2372
1011 3 26.0969 19.6698 55.3239
1012 4 27.5236 20.4708 56.2358
1015 7 26.0942 21.2828 55.325
1249 1 28.9597 19.6693 55.3286
1253 5 28.9603 21.2833 55.3353
1246 6 30.3916 18.8648 56.2496
1250 2 30.3904 20.4761 56.2516
1251 3 31.8286 19.6694 55.3472
1255 7 31.8273 21.2818 55.3477
1248 8 33.2617 18.862 56.2574
1252 4 33.2587 20.4729 56.26
1489 1 34.6896 19.6638 55.3399
1493 5 34.6901 21.2779 55.3473
1486 6 36.1269 18.8568 56.2504
1490 2 36.1293 20.4716 56.2484
1491 3 37.5592 19.668 55.3336
1495 7 37.5584 21.2821 55.3253
1488 8 38.9933 18.8639 56.2409
1492 4 38.9964 20.4767 56.2305
1726 6 41.8601 18.8583 56.232
1729 1 40.4228 19.6619 55.3195
1730 2 41.8581 20.4723 56.232
1733 5 40.4261 21.2766 55.3239
1728 8 44.7229 18.8593 56.2399
1731 3 43.2931 19.6659 55.3294
1732 4 44.7258 20.4741 56.2386
1735 7 43.2955 21.2806 55.3235
1966 6 47.5865 18.857 56.2426
1969 1 46.1526 19.6668 55.3272
1970 2 47.5898 20.47 56.2394
1973 5 46.157 21.2797 55.3215
54 6 1.73488 22.0917 56.1746
57 1 0.30004 22.8978 55.2755
58 2 1.73521 23.7008 56.1869
59 3 3.16732 22.8968 55.2647
61 5 0.299405 24.5117 55.2749
63 7 3.16216 24.5111 55.2711
56 8 4.59169 22.089 56.1848
60 4 4.59561 23.7039 56.1879
297 1 6.02933 22.8954 55.2874
301 5 6.02813 24.5095 55.2834
294 6 7.45584 22.0912 56.1995
298 2 7.45757 23.7051 56.1941
299 3 8.89354 22.8967 55.2924
303 7 8.89528 24.5149 55.2939
296 8 10.3249 22.0918 56.2014
300 4 10.3277 23.7094 56.2077
537 1 11.758 22.8981 55.2937
541 5 11.7626 24.5158 55.3003
534 6 13.1915 22.0908 56.2134
536 8 16.0581 22.0959 56.2158
538 2 13.1939 23.7066 56.2163
539 3 14.6221 22.8973 55.312
540 4 16.0589 23.7095 56.2224
543 7 14.6245 24.5136 55.3067
774 6 18.927 22.0968 56.2322
777 1 17.4917 22.9045 55.3127
778 2 18.9259 23.7118 56.2246
781 5 17.4928 24.5162 55.313
776 8 21.7899 22.0947 56.2325
779 3 20.3591 22.9031 55.3138
780 4 21.793 23.706 56.2259
783 7 20.3611 24.5133 55.3122
1014 6 24.6598 22.0881 56.2281
1017 1 23.2249 22.8987 55.3161
1018 2 24.6577 23.7036 56.2262
1021 5 23.227 24.5122 55.315
1016 8 27.5313 22.0841 56.2495
1019 3 26.0975 22.8972 55.3345
1020 4 27.5301 23.7012 56.2611
1023 7 26.0969 24.513 55.3308
1257 1 28.962 22.8996 55.3438
1261 5 28.9589 24.5092 55.3488
1254 6 30.3931 22.0889 56.2504
1258 2 30.3963 23.7053 56.2665
1259 3 31.8284 22.8962 55.3492
1263 7 31.8242 24.5081 55.3535
1256 8 33.2617 22.0892 56.2652
1260 4 33.2604 23.6992 56.2579
1497 1 34.6902 22.8949 55.3473
1501 5 34.6995 24.5084 55.3489
1494 6 36.1333 22.0883 56.249
1498 2 36.1294 23.7029 56.2529
1499 3 37.5594 22.8944 55.3295
1503 7 37.5607 24.51 55.3272
1496 8 38.9937 22.0883 56.2353
1500 4 38.9957 23.7014 56.2381
1734 6 41.8583 22.0857 56.2367
1737 1 40.4264 22.8931 55.3224
1738 2 41.856 23.7022 56.2395
1741 5 40.4258 24.5087 55.3357
1736 8 44.7258 22.0913 56.2293
1739 3 43.2902 22.8937 55.3263
1740 4 44.7206 23.7044 56.2362
1743 7 43.29 24.5085 55.3292
1974 6 47.593 22.0859 56.2391
1977 1 46.1547 22.8954 55.3168
1978 2 47.5866 23.6981 56.2287
1981 5 46.1504 24.5105 55.3179
62 6 1.73209 25.3165 56.1822
65 1 0.304 26.1227 55.2715
66 2 1.72994 26.9344 56.1809
67 3 3.16643 26.1281 55.2737
69 5 0.302769 27.7405 55.2691
71 7 3.16868 27.7407 55.2662
64 8 4.59423 25.3192 56.1866
68 4 4.59573 26.9339 56.1932
305 1 6.02593 26.1245 55.2836
309 5 6.03025 27.7405 55.2843
302 6 7.45824 25.3173 56.1981
306 2 7.45758 26.9325 56.2032
307 3 8.89737 26.1288 55.2919
311 7 8.89798 27.7401 55.2888
304 8 10.3251 25.3231 56.2076
308 4 10.3242 26.9383 56.2169
545 1 11.7612 26.1295 55.3019
549 5 11.7597 27.7431 55.2972
542 6 13.1889 25.3211 56.2197
544 8 16.0577 25.3209 56.226
546 2 13.1922 26.9365 56.216
547 3 14.6264 26.1293 55.3184
548 4 16.0627 26.9371 56.2284
551 7 14.6355 27.7448 55.3091
782 6 18.93 25.3229 56.2254
785 1 17.4943 26.1328 55.3208
786 2 18.9296 26.9381 56.2336
789 5 17.4966 27.7438 55.3241
784 8 21.7943 25.3209 56.2159
787 3 20.3591 26.1273 55.314
788 4 21.7935 26.933 56.2169
791 7 20.3594 27.7417 55.3089
1022 6 24.6585 25.3146 56.2331
1025 1 23.2323 26.1244 55.3098
1026 2 24.6536 26.9333 56.2361
1029 5 23.2294 27.7377 55.3103
1024 8 27.5229 25.3168 56.2705
1027 3 26.095 26.1248 55.3329
1028 4 27.5184 26.9314 56.2559
1031 7 26.0927 27.7403 55.3364
1265 1 28.9578 26.1208 55.3625
1269 5 28.9583 27.7353 55.3476
1262 6 30.3907 25.3173 56.2632
1266 2 30.3902 26.9313 56.2668
1267 3 31.8249 26.1238 55.3573
1271 7 31.8234 27.7339 55.3573
1264 8 33.2587 25.314 56.259
1268 4 33.2564 26.9288 56.2653
1505 1 34.6889 26.1267 55.3467
1509 5 34.6895 27.7403 55.3487
1502 6 36.1276 25.3185 56.2409
1506 2 36.127 26.9349 56.246
1507 3 37.5621 26.1241 55.3423
1511 7 37.5592 27.7361 55.3436
1504 8 38.9918 25.313 56.2476
1508 4 38.9944 26.9315 56.2561
1742 6 41.8611 25.3132 56.2473
1745 1 40.4184 26.1257 55.3495
1746 2 41.8572 26.9249 56.2519
1749 5 40.4196 27.7428 55.3474
1744 8 44.7223 25.3149 56.2448
1747 3 43.2892 26.1241 55.3333
1748 4 44.7215 26.9283 56.2509
1751 7 43.2878 27.7364 55.3388
1982 6 47.5858 25.3121 56.2328
1985 1 46.1507 26.126 55.3341
1986 2 47.5893 26.9237 56.2426
1989 5 46.1543 27.7392 55.3392
70 6 1.73541 28.5453 56.1767
73 1 0.299219 29.3536 55.2771
74 2 1.73604 30.1582 56.1828
75 3 3.1662 29.354 55.2645
77 5 0.298526 30.9628 55.2768
79 7 3.16599 30.9695 55.2657
72 8 4.59376 28.5479 56.1925
76 4 4.594 30.1622 56.1819
313 1 6.02582 29.356 55.2795
317 5 6.03215 30.9691 55.2784
310 6 7.45627 28.5477 56.1942
314 2 7.4612 30.161 56.193
315 3 8.8977 29.3586 55.2824
319 7 8.90147 30.9733 55.2924
312 8 10.3255 28.5527 56.198
316 4 10.325 30.1642 56.2083
553 1 11.7662 29.3568 55.3005
557 5 11.765 30.9713 55.3033
550 6 13.1949 28.5504 56.2192
552 8 16.0595 28.5522 56.237
554 2 13.1926 30.1646 56.2147
555 3 14.6296 29.3574 55.3097
556 4 16.0582 30.1653 56.2292
559 7 14.6281 30.9713 55.3104
790 6 18.9327 28.553 56.2277
793 1 17.4915 29.3553 55.3191
794 2 18.9312 30.1645 56.2145
797 5 17.4913 30.9699 55.316
792 8 21.7933 28.5496 56.2171
795 3 20.364 29.3548 55.3047
796 4 21.7925 30.1635 56.2307
799 7 20.3629 30.9679 55.3044
1030 6 24.6511 28.5471 56.2339
1033 1 23.2271 29.3527 55.3117
1034 2 24.6562 30.1604 56.2313
1037 5 23.2292 30.9662 55.319
1032 8 27.5234 28.5416 56.2586
1035 3 26.0969 29.354 55.3357
1036 4 27.5242 30.1607 56.2563
1039 7 26.0965 30.9701 55.3443
1273 1 28.9542 29.3497 55.3559
1277 5 28.9564 30.9631 55.3428
1270 6 30.3896 28.5432 56.2633
1274 2 30.392 30.1585 56.2626
1275 3 31.8233 29.3494 55.3495
1279 7 31.8263 30.9634 55.3542
1272 8 33.2574 28.5461 56.2564
1276 4 33.2561 30.1595 56.2597
1513 1 34.6874 29.3561 55.3457
1517 5 34.6936 30.9693 55.3478
1510 6 36.124 28.547 56.2568
1514 2 36.1244 30.1631 56.2625
1515 3 37.5586 29.354 55.3471
1519 7 37.5596 30.9681 55.3563
1512 8 38.9839 28.5455 56.2618
1516 4 38.9871 30.1583 56.2686
1750 6 41.8546 28.5388 56.2572
1753 1 40.4213 29.353 55.3579
1754 2 41.8573 30.1547 56.2667
1757 5 40.4227 30.9641 55.3634
1752 8 44.7192 28.5397 56.2486
1755 3 43.2885 29.3504 55.3416
1756 4 44.7254 30.1521 56.2582
1759 7 43.2812 30.9633 55.3544
1990 6 47.586 28.5407 56.2486
1993 1 46.152 29.3535 55.3323
1994 2 47.5839 30.1585 56.2516
1997 5 46.1537 30.9671 55.3446
78 6 1.73133 31.7753 56.188
81 1 0.294943 32.5783 55.2702
82 2 1.7346 33.3927 56.1809
83 3 3.15989 32.5841 55.2762
85 5 0.299961 34.197 55.2661
87 7 3.16618 34.1978 55.2658
80 8 4.5921 31.7743 56.1843
84 4 4.59176 33.3917 56.1827
321 1 6.02955 32.5847 55.2822
325 5 6.03162 34.1999 55.2837
318 6 7.45802 31.7747 56.2026
322 2 7.46085 33.3918 56.2089
323 3 8.8956 32.5851 55.3074
327 7 8.9009 34.2001 55.3019
320 8 10.3256 31.7797 56.2135
324 4 10.3291 33.3943 56.2222
561 1 11.7644 32.5832 55.3151
565 5 11.7684 34.2007 55.3169
558 6 13.1999 31.7757 56.2193
560 8 16.0602 31.7785 56.226
562 2 13.1971 33.3928 56.2279
563 3 14.6339 32.5852 55.3169
564 4 16.0676 33.3945 56.2252
567 7 14.6339 34.1989 55.321
798 6 18.9275 31.7786 56.2133
801 1 17.4945 32.5802 55.3095
802 2 18.928 33.3919 56.2244
805 5 17.4984 34.1947 55.3143
800 8 21.7908 31.7767 56.2232
803 3 20.3596 32.5828 55.3081
804 4 21.7964 33.3915 56.2206
807 7 20.3634 34.1993 55.3009
1038 6 24.6567 31.7737 56.2443
1041 1 23.2313 32.5838 55.3197
1042 2 24.6591 33.389 56.2444
1045 5 23.2333 34.1948 55.3238
1040 8 27.5282 31.7759 56.2507
1043 3 26.0951 32.5824 55.3369
1044 4 27.5292 33.3882 56.2514
1047 7 26.1003 34.1942 55.336
1281 1 28.9677 32.5806 55.342
1285 5 28.9679 34.1944 55.3492
1278 6 30.3878 31.773 56.2633
1282 2 30.396 33.3862 56.258
1283 3 31.8222 32.5793 55.3443
1287 7 31.8223 34.1924 55.3381
1280 8 33.258 31.7771 56.2581
1284 4 33.2579 33.3888 56.2591
1521 1 34.6891 32.5802 55.344
1525 5 34.6967 34.1934 55.3377
1518 6 36.1227 31.7773 56.2588
1522 2 36.1253 33.3892 56.2508
1523 3 37.562 32.5806 55.3532
1527 7 37.5609 34.1941 55.3467
1520 8 38.9922 31.7743 56.2747
1524 4 38.9895 33.3887 56.2699
1758 6 41.8529 31.769 56.2817
1761 1 40.4255 32.5783 55.3645
1762 2 41.8476 33.3841 56.2714
1765 5 40.4251 34.193 55.3526
1760 8 44.7245 31.7654 56.2622
1763 3 43.2797 32.5769 55.3635
1764 4 44.7151 33.3802 56.268
1767 7 43.2829 34.1906 55.3683
1998 6 47.5909 31.7707 56.2554
2001 1 46.1558 32.58 55.3551
2002 2 47.5899 33.3839 56.2696
2005 5 46.1517 34.1918 55.359
86 6 1.7313 35.0046 56.1769
89 1 0.297473 35.8133 55.264
90 2 1.73273 36.6187 56.1728
91 3 3.16556 35.8108 55.2695
93 5 0.29838 37.4292 55.2705
95 7 3.16905 37.4271 55.2695
88 8 4.59262 35.0054 56.1895
92 4 4.58905 36.6189 56.1959
329 1 6.02899 35.8121 55.2947
333 5 6.03526 37.427 55.2918
326 6 7.46504 35.0057 56.2074
330 2 7.46428 36.6191 56.2063
331 3 8.89478 35.8114 55.2961
335 7 8.90066 37.4248 55.2961
328 8 10.329 35.0084 56.217
332 4 10.3321 36.6222 56.2131
569 1 11.769 35.8115 55.31
573 5 11.773 37.427 55.3099
566 6 13.1998 35.0046 56.2292
568 8 16.072 35.0067 56.226
570 2 13.2026 36.6201 56.2231
571 3 14.6338 35.813 55.3132
572 4 16.0695 36.6222 56.2218
575 7 14.6322 37.4267 55.3053
806 6 18.9346 35.0059 56.2187
809 1 17.5014 35.8075 55.3012
810 2 18.9265 36.6193 56.2163
813 5 17.5024 37.4249 55.3111
808 8 21.7937 35.0056 56.226
811 3 20.3684 35.8144 55.318
812 4 21.7961 36.6178 56.229
815 7 20.37 37.4268 55.319
1046 6 24.6637 35.0048 56.2454
1049 1 23.231 35.8093 55.323
1050 2 24.664 36.6206 56.2389
1053 5 23.2295 37.4237 55.3201
1048 8 27.528 35.0054 56.2543
1051 3 26.1005 35.8094 55.3367
1052 4 27.5288 36.619 56.2421
1055 7 26.0994 37.4255 55.3237
1289 1 28.9613 35.8054 55.3383
1293 5 28.9653 37.4198 55.3378
1286 6 30.3967 35 56.2607
1290 2 30.3976 36.6125 56.249
1291 3 31.8296 35.8054 55.3383
1295 7 31.8268 37.4214 55.3387
1288 8 33.2608 35.0014 56.2531
1292 4 33.2661 36.6113 56.2415
1529 1 34.6961 35.8038 55.3335
1533 5 34.6943 37.4198 55.3333
1526 6 36.1283 35.0035 56.2468
1530 2 36.1261 36.6175 56.2454
1531 3 37.56 35.8103 55.3334
1535 7 37.5571 37.4253 55.3376
1528 8 38.9892 35.0044 56.256
1532 4 38.993 36.6186 56.2486
1766 6 41.8516 34.998 56.2659
1769 1 40.4245 35.8069 55.3465
1770 2 41.8515 36.6148 56.2615
1773 5 40.426 37.4241 55.3433
1768 8 44.7164 34.9962 56.2834
1771 3 43.285 35.805 55.3676
1772 4 44.718 36.6118 56.2782
1775 7 43.2926 37.4162 55.3574
2006 6 47.5844 34.9958 56.2674
2009 1 46.1504 35.8062 55.3705
2010 2 47.5917 36.6154 56.2737
2013 5 46.1542 37.4205 55.3734
94 6 1.73086 38.2357 56.1799
97 1 0.298571 39.0439 55.2756
98 2 1.7319 39.8466 56.1845
99 3 3.16917 39.0401 55.2781
96 8 4.59215 38.2335 56.1986
100 4 4.59263 39.8494 56.2026
337 1 6.03259 39.0429 55.299
334 6 7.46701 38.2361 56.2138
338 2 7.46334 39.8486 56.1997
339 3 8.89957 39.0377 55.2928
336 8 10.3333 38.2364 56.2105
340 4 10.3285 39.848 56.1988
577 1 11.7711 39.036 55.2997
574 6 13.1994 38.2365 56.2248
576 8 16.0642 38.2321 56.2188
578 2 13.1981 39.854 56.2101
579 3 14.6293 39.0389 55.3059
580 4 16.0639 39.8473 56.2156
814 6 18.9271 38.2337 56.2269
817 1 17.4983 39.0384 55.3046
818 2 18.9261 39.8491 56.2178
816 8 21.7989 38.2326 56.2329
819 3 20.3623 39.0412 55.3184
820 4 21.7954 39.8473 56.2267
1054 6 24.6654 38.2348 56.2265
1057 1 23.2321 39.0381 55.3187
1058 2 24.6647 39.8497 56.2276
1056 8 27.527 38.2359 56.2446
1059 3 26.1018 39.0423 55.3216
1060 4 27.5243 39.8475 56.235
1297 1 28.9639 39.0362 55.3408
1294 6 30.3931 38.2295 56.2517
1298 2 30.3939 39.8471 56.2433
1299 3 31.8266 39.0325 55.3357
1296 8 33.2607 38.2305 56.2395
1300 4 33.2598 39.8442 56.2392
1537 1 34.6956 39.034 55.3291
1534 6 36.1215 38.2319 56.2475
1538 2 36.1248 39.8428 56.2498
1539 3 37.5589 39.0373 55.3336
1536 8 38.9872 38.2328 56.2516
1540 4 38.9902 39.8443 56.2473
1774 6 41.8533 38.2282 56.2641
1777 1 40.4202 39.0357 55.3421
1778 2 41.8538 39.843 56.2584
1776 8 44.7173 38.2295 56.2752
1779 3 43.2915 39.0275 55.3555
1780 4 44.7168 39.8439 56.2496
2014 6 47.5921 38.231 56.281
2017 1 46.1552 39.035 55.3588
2018 2 47.5812 39.8434 56.2627
101 5 0.299358 40.6558 55.2759
102 6 1.73364 41.464 56.1832
103 7 3.16887 40.6549 55.2785
105 1 0.298086 42.2707 55.2669
106 2 1.7271 43.0769 56.1821
107 3 3.16673 42.268 55.2847
104 8 4.59539 41.4621 56.197
108 4 4.59419 43.0777 56.1965
341 5 6.03273 40.6535 55.2861
345 1 6.02824 42.2684 55.2852
342 6 7.46543 41.4602 56.2006
343 7 8.89854 40.6538 55.2875
346 2 7.45886 43.0764 56.2002
347 3 8.89412 42.2676 55.2856
344 8 10.3333 41.4638 56.1891
348 4 10.3309 43.0746 56.1823
581 5 11.7677 40.6508 55.2842
585 1 11.7651 42.2658 55.2721
582 6 13.1972 41.4638 56.1997
583 7 14.6351 40.6529 55.2923
584 8 16.0635 41.4611 56.2111
586 2 13.1929 43.0774 56.186
587 3 14.6337 42.268 55.2883
588 4 16.0622 43.072 56.1995
821 5 17.4984 40.6507 55.3055
822 6 18.9261 41.4637 56.2218
825 1 17.4994 42.2634 55.2992
826 2 18.9253 43.0777 56.2101
823 7 20.3595 40.6536 55.3111
824 8 21.7949 41.4614 56.2129
827 3 20.3624 42.2672 55.3084
828 4 21.7958 43.0737 56.223
1061 5 23.2253 40.6514 55.3123
1062 6 24.661 41.4625 56.2243
1065 1 23.2284 42.2703 55.307
1066 2 24.6612 43.0752 56.2287
1063 7 26.0953 40.6551 55.3154
1064 8 27.5286 41.4617 56.225
1067 3 26.0993 42.2703 55.3061
1068 4 27.5233 43.0758 56.2306
1301 5 28.9612 40.6502 55.3222
1305 1 28.9615 42.2659 55.3166
1302 6 30.3884 41.4614 56.241
1303 7 31.8303 40.6501 55.3238
1306 2 30.3855 43.0701 56.2276
1307 3 31.8262 42.2645 55.3245
1304 8 33.259 41.4588 56.2413
1308 4 33.2526 43.0736 56.2394
1541 5 34.6913 40.646 55.3314
1545 1 34.6872 42.2614 55.3286
1542 6 36.1229 41.4575 56.2397
1543 7 37.5589 40.6519 55.3379
1546 2 36.1211 43.0725 56.238
1547 3 37.5571 42.2636 55.3319
1544 8 38.9877 41.4554 56.248
1548 4 38.9896 43.0701 56.2478
1781 5 40.4235 40.6471 55.3361
1782 6 41.855 41.457 56.2506
1785 1 40.4186 42.2615 55.338
1786 2 41.8561 43.0703 56.2378
1783 7 43.2887 40.645 55.3419
1784 8 44.7247 41.4583 56.2508
1787 3 43.2903 42.2586 55.3314
1788 4 44.7186 43.0696 56.2451
2021 5 46.1564 40.6466 55.3472
2022 6 47.5856 41.4568 56.257
2025 1 46.1543 42.259 55.3408
2026 2 47.5871 43.0727 56.2415
109 5 0.300926 43.8848 55.2714
110 6 1.73626 44.6901 56.1912
111 7 3.16547 43.8815 55.2792
113 1 0.30402 45.4952 55.2745
114 2 1.72815 46.3052 56.1938
115 3 3.16507 45.495 55.2855
112 8 4.59859 44.6899 56.2041
116 4 4.59547 46.3047 56.2027
349 5 6.027 43.8841 55.2855
353 1 6.03001 45.4984 55.288
350 6 7.46329 44.6903 56.1941
351 7 8.89459 43.882 55.2773
354 2 7.4664 46.3013 56.1998
355 3 8.89177 45.4963 55.2831
352 8 10.3291 44.6876 56.1923
356 4 10.3296 46.3021 56.198
589 5 11.7594 43.8843 55.2771
593 1 11.7568 45.4961 55.2836
590 6 13.1905 44.6895 56.196
591 7 14.6285 43.884 55.2852
592 8 16.0601 44.6885 56.1965
594 2 13.1945 46.3034 56.1913
595 3 14.6277 45.5004 55.2847
596 4 16.0639 46.3029 56.1986
829 5 17.4963 43.8788 55.2884
830 6 18.9246 44.6916 56.2078
833 1 17.4962 45.4961 55.2893
834 2 18.9285 46.3034 56.2095
831 7 20.3668 43.8816 55.3096
832 8 21.8009 44.6873 56.2218
835 3 20.3665 45.4964 55.3105
836 4 21.799 46.3001 56.2216
1069 5 23.2343 43.8813 55.3119
1070 6 24.6621 44.6921 56.2209
1073 1 23.2284 45.4964 55.3114
1074 2 24.6666 46.3042 56.2247
1071 7 26.0953 43.883 55.3133
1072 8 27.5227 44.6865 56.2307
1075 3 26.0933 45.496 55.3146
1076 4 27.5304 46.3024 56.2323
1309 5 28.9541 43.8806 55.3177
1313 1 28.9569 45.4928 55.3162
1310 6 30.3924 44.6854 56.2325
1311 7 31.8212 43.8786 55.321
1314 2 30.3893 46.3035 56.2318
1315 3 31.8243 45.4957 55.3229
1312 8 33.259 44.6886 56.2349
1316 4 33.2588 46.3026 56.2314
1549 5 34.689 43.8767 55.3292
1553 1 34.6899 45.4901 55.327
1550 6 36.1199 44.6878 56.2366
1551 7 37.5572 43.8799 55.3318
1554 2 36.1225 46.3004 56.2339
1555 3 37.5577 45.4932 55.3353
1552 8 38.9874 44.6842 56.2564
1556 4 38.9853 46.3041 56.2459
1789 5 40.4162 43.8773 55.3375
1790 6 41.8581 44.6821 56.2413
1793 1 40.4227 45.491 55.3413
1794 2 41.8567 46.2969 56.2402
1791 7 43.2866 43.8746 55.3305
1792 8 44.7193 44.683 56.2463
1795 3 43.2875 45.489 55.3253
1796 4 44.7189 46.2932 56.243
2029 5 46.1567 43.8755 55.3381
2030 6 47.589 44.6845 56.2474
2033 1 46.1536 45.4897 55.3345
2034 2 47.5839 46.3008 56.2414
117 5 0.298389 47.1103 55.2816
118 6 1.72722 47.9198 56.1851
119 7 3.1657 47.1092 55.2876
121 1 0.295019 48.7244 55.2745
122 2 1.72972 49.5299 56.1834
123 3 3.16466 48.7263 55.2779
120 8 4.59484 47.9179 56.1952
124 4 4.59544 49.5308 56.196
357 5 6.03073 47.1067 55.2929
361 1 6.02814 48.7234 55.2832
358 6 7.46277 47.9145 56.1972
359 7 8.89373 47.1103 55.2894
362 2 7.46115 49.5281 56.1977
363 3 8.89513 48.7204 55.2857
360 8 10.3294 47.9133 56.2049
364 4 10.3291 49.5287 56.2035
597 5 11.7569 47.1119 55.2808
601 1 11.7579 48.7239 55.2847
598 6 13.1972 47.9144 56.1833
599 7 14.6318 47.1113 55.2844
600 8 16.0616 47.9151 56.1907
602 2 13.1961 49.527 56.1988
603 3 14.629 48.7253 55.2806
604 4 16.0589 49.5269 56.1971
837 5 17.5006 47.107 55.2844
838 6 18.9258 47.9165 56.2058
841 1 17.4948 48.7183 55.2905
842 2 18.9251 49.5293 56.2034
839 7 20.3701 47.1064 55.304
840 8 21.7988 47.9168 56.2235
843 3 20.3663 48.7193 55.2937
844 4 21.796 49.5314 56.2112
1077 5 23.2305 47.1106 55.3111
1078 6 24.6618 47.9183 56.2313
1081 1 23.2333 48.7261 55.3131
1082 2 24.6647 49.5339 56.2262
1079 7 26.1005 47.1116 55.3172
1080 8 27.5297 47.9139 56.2268
1083 3 26.0969 48.724 55.315
1084 4 27.528 49.5317 56.2247
1317 5 28.9636 47.107 55.313
1321 1 28.9634 48.7223 55.3219
1318 6 30.3973 47.917 56.2419
1319 7 31.8306 47.1124 55.3278
1322 2 30.3978 49.5287 56.2334
1323 3 31.8284 48.7232 55.3113
1320 8 33.2605 47.9169 56.2339
1324 4 33.2626 49.5274 56.2279
1557 5 34.6854 47.104 55.3183
1561 1 34.694 48.7168 55.3123
1558 6 36.1261 47.9174 56.2248
1559 7 37.5573 47.1087 55.3214
1562 2 36.1248 49.5254 56.2294
1563 3 37.5632 48.7222 55.3163
1560 8 38.9919 47.9156 56.2406
1564 4 38.991 49.5283 56.229
1797 5 40.418 47.1018 55.3306
1798 6 41.8587 47.9104 56.2389
1801 1 40.4268 48.7193 55.3258
1802 2 41.856 49.5219 56.2373
1799 7 43.2912 47.1036 55.3319
1800 8 44.7263 47.9101 56.243
1803 3 43.2931 48.7173 55.3238
1804 4 44.7224 49.527 56.239
2037 5 46.154 47.1008 55.3363
2038 6 47.5882 47.9124 56.2274
2041 1 46.1547 48.7174 55.3187
2042 2 47.5898 49.5247 56.2288
125 5 0.298117 50.3364 55.271
126 6 1.73125 51.143 56.1855
127 7 3.16568 50.3404 55.27
129 1 0.298559 51.9513 55.2759
130 2 1.72446 52.7563 56.1886
131 3 3.16274 51.9527 55.2779
128 8 4.59653 51.1445 56.1884
132 4 4.59535 52.7562 56.1933
365 5 6.02971 50.337 55.2843
369 1 6.03028 51.9515 55.2802
366 6 7.4644 51.1443 56.1951
367 7 8.89645 50.3337 55.2862
370 2 7.46534 52.7594 56.191
371 3 8.89646 51.9488 55.281
368 8 10.3272 51.1438 56.2059
372 4 10.3249 52.7558 56.2007
605 5 11.7596 50.3374 55.2946
609 1 11.76 51.9494 55.2941
606 6 13.1956 51.1404 56.2085
607 7 14.6263 50.339 55.2943
608 8 16.0632 51.1406 56.2016
610 2 13.1955 52.7564 56.2082
611 3 14.6268 51.9524 55.2945
612 4 16.0615 52.7537 56.1991
845 5 17.497 50.3312 55.2882
846 6 18.9292 51.1393 56.1966
849 1 17.4942 51.9491 55.2894
850 2 18.9264 52.7556 56.1951
847 7 20.3662 50.3381 55.2984
848 8 21.7962 51.145 56.2245
851 3 20.3667 51.9534 55.299
852 4 21.7946 52.7601 56.2204
1085 5 23.2321 50.3415 55.3144
1086 6 24.6624 51.1465 56.2299
1089 1 23.2339 51.9544 55.3193
1090 2 24.661 52.7572 56.2253
1087 7 26.0975 50.3384 55.317
1088 8 27.5301 51.1454 56.2249
1091 3 26.0973 51.9546 55.3137
1092 4 27.5254 52.7595 56.222
1325 5 28.9639 50.3368 55.3174
1329 1 28.9624 51.9517 55.3242
1326 6 30.3975 51.1426 56.2262
1327 7 31.8291 50.3347 55.3153
1330 2 30.3954 52.7562 56.2379
1331 3 31.8297 51.9505 55.3199
1328 8 33.2592 51.1418 56.2378
1332 4 33.2588 52.7566 56.2257
1565 5 34.6913 50.3336 55.32
1569 1 34.6962 51.9476 55.3136
1566 6 36.1246 51.142 56.2279
1567 7 37.5631 50.3363 55.3189
1570 2 36.1234 52.7565 56.2316
1571 3 37.5583 51.9495 55.3185
1568 8 38.9851 51.1423 56.2427
1572 4 38.9894 52.7538 56.2461
1805 5 40.4241 50.3321 55.3345
1806 6 41.8536 51.1366 56.2369
1809 1 40.4239 51.9448 55.3283
1810 2 41.8584 52.7513 56.2445
1807 7 43.2904 50.3327 55.3229
1808 8 44.72 51.1388 56.238
1811 3 43.2876 51.9453 55.3271
1812 4 44.7257 52.7495 56.2354
2045 5 46.1558 50.3312 55.3203
2046 6 47.5948 51.1378 56.2246
2049 1 46.1579 51.9424 55.3293
2050 2 47.5888 52.7517 56.228
133 5 0.294667 53.5648 55.2757
134 6 1.72362 54.3705 56.1914
135 7 3.1546 53.5651 55.2775
137 1 0.293836 55.175 55.2738
138 2 1.72564 55.9826 56.1886
139 3 3.15909 55.177 55.2844
136 8 4.59482 54.3705 56.1864
140 4 4.59442 55.9809 56.1936
373 5 6.02752 53.5637 55.274
377 1 6.03213 55.1802 55.2903
374 6 7.46548 54.372 56.1876
375 7 8.90105 53.5675 55.2777
378 2 7.46074 55.9865 56.1972
379 3 8.90248 55.1817 55.2849
376 8 10.3272 54.37 56.2016
380 4 10.3297 55.985 56.2023
613 5 11.7651 53.5613 55.2967
617 1 11.7642 55.1781 55.2994
614 6 13.1939 54.3678 56.2078
615 7 14.6275 53.564 55.2993
616 8 16.0671 54.3672 56.2044
618 2 13.196 55.9843 56.202
619 3 14.628 55.1779 55.3037
620 4 16.0615 55.9823 56.2105
853 5 17.4971 53.5661 55.2866
854 6 18.9299 54.3691 56.2052
857 1 17.4937 55.1799 55.2942
858 2 18.9269 55.985 56.2054
855 7 20.3652 53.5656 55.2971
856 8 21.8009 54.3717 56.2125
859 3 20.3645 55.1799 55.3044
860 4 21.7918 55.986 56.2216
1093 5 23.2323 53.5655 55.3081
1094 6 24.662 54.3702 56.22
1097 1 23.2265 55.18 55.3003
1098 2 24.66 55.9836 56.2255
1095 7 26.0962 53.5665 55.3091
1096 8 27.5264 54.3703 56.2266
1099 3 26.095 55.1785 55.3066
1100 4 27.5226 55.9816 56.2284
1333 5 28.9615 53.567 55.3171
1337 1 28.9633 55.18 55.3239
1334 6 30.3944 54.3708 56.2359
1335 7 31.8284 53.5667 55.3204
1338 2 30.3942 55.9829 56.2312
1339 3 31.8223 55.1785 55.3219
1336 8 33.2568 54.3696 56.2355
1340 4 33.2634 55.9854 56.2394
1573 5 34.6953 53.5642 55.3253
1577 1 34.6864 55.1781 55.3289
1574 6 36.1238 54.3707 56.2335
1575 7 37.5608 53.5648 55.3236
1578 2 36.1284 55.9858 56.2326
1579 3 37.5575 55.1748 55.3194
1576 8 38.9882 54.3676 56.235
1580 4 38.9895 55.9832 56.2233
1813 5 40.4253 53.5576 55.3375
1814 6 41.8568 54.3659 56.2369
1817 1 40.424 55.1721 55.3259
1818 2 41.8562 55.9801 56.2368
1815 7 43.2886 53.5588 55.3285
1816 8 44.7284 54.369 56.2291
1819 3 43.2893 55.1705 55.3232
1820 4 44.7238 55.9827 56.2279
2053 5 46.1576 53.5571 55.3146
2054 6 47.5894 54.3638 56.2322
2057 1 46.1539 55.172 55.3141
2058 2 47.5853 55.9794 56.2261
141 5 0.291535 56.7886 55.2707
142 6 1.72713 57.5941 56.1903
143 7 3.1663 56.7894 55.288
145 1 0.299488 58.4056 55.2818
146 2 1.73048 59.2068 56.1978
147 3 3.16565 58.402 55.2933
144 8 4.59904 57.5964 56.2015
148 4 4.59344 59.2102 56.2088
381 5 6.03113 56.7934 55.289
385 1 6.0247 58.4051 55.2952
382 6 7.4647 57.5971 56.1996
383 7 8.90058 56.7929 55.2775
386 2 7.46324 59.2134 56.1962
387 3 8.89682 58.4082 55.2875
384 8 10.3267 57.6009 56.2014
388 4 10.3223 59.2156 56.2014
621 5 11.7633 56.7925 55.2991
625 1 11.7636 58.407 55.2995
622 6 13.1953 57.5962 56.2079
623 7 14.6287 56.7913 55.2939
624 8 16.0627 57.5968 56.2118
626 2 13.19 59.2135 56.211
627 3 14.6296 58.4066 55.2977
628 4 16.0585 59.2132 56.2119
861 5 17.4935 56.7912 55.2991
862 6 18.9282 57.5972 56.2061
865 1 17.4915 58.4068 55.3021
866 2 18.9271 59.2107 56.2129
863 7 20.3616 56.7942 55.3046
864 8 21.7937 57.5988 56.2234
867 3 20.3628 58.4087 55.2985
868 4 21.7896 59.2125 56.2159
1101 5 23.2298 56.7939 55.3027
1102 6 24.6578 57.5955 56.2159
1105 1 23.2237 58.4077 55.3011
1106 2 24.6589 59.2127 56.2157
1103 7 26.0936 56.7925 55.3132
1104 8 27.5234 57.5983 56.2266
1107 3 26.0933 58.4052 55.3106
1108 4 27.5275 59.2117 56.225
1341 5 28.9611 56.7903 55.3203
1345 1 28.9593 58.4038 55.3159
1342 6 30.3941 57.597 56.231
1343 7 31.8277 56.7892 55.3255
1346 2 30.3939 59.2118 56.2272
1347 3 31.8254 58.4046 55.3183
1344 8 33.2601 57.601 56.2391
1348 4 33.2599 59.2138 56.2287
1581 5 34.6924 56.7904 55.3245
1585 1 34.6915 58.4036 55.3168
1582 6 36.1316 57.5983 56.2246
1583 7 37.558 56.7902 55.3175
1586 2 36.1295 59.2084 56.2232
1587 3 37.5623 58.4038 55.3127
1584 8 38.992 57.5947 56.2253
1588 4 38.9945 59.2087 56.2328
1821 5 40.4247 56.7861 55.319
1822 6 41.8578 57.5945 56.2366
1825 1 40.4262 58.4031 55.3266
1826 2 41.857 59.209 56.2317
1823 7 43.2894 56.7846 55.3191
1824 8 44.7217 57.5922 56.2239
1827 3 43.289 58.3961 55.3243
1828 4 44.7204 59.2062 56.2303
2061 5 46.1587 56.7875 55.3184
2062 6 47.59 57.5919 56.2385
2065 1 46.1587 58.4005 55.3245
2066 2 47.5894 59.2058 56.2336
149 5 0.29995 60.0193 55.2836
150 6 1.73291 60.8224 56.2029
151 7 3.16502 60.0165 55.2957
153 1 0.300162 61.6303 55.2906
154 2 1.73202 62.4388 56.2029
155 3 3.16071 61.6327 55.2899
152 8 4.59569 60.8242 56.2113
156 4 4.60098 62.4385 56.2107
389 5 6.0257 60.0219 55.2958
393 1 6.02619 61.6336 55.3014
390 6 7.46393 60.8281 56.2011
391 7 8.8945 60.0256 55.2854
394 2 7.45978 62.4423 56.2027
395 3 8.89143 61.6417 55.2925
392 8 10.3274 60.8282 56.201
396 4 10.3273 62.442 56.2046
629 5 11.7593 60.0208 55.2937
633 1 11.7593 61.6324 55.2892
630 6 13.193 60.8264 56.2032
631 7 14.6258 60.0194 55.2984
632 8 16.0597 60.8254 56.2114
634 2 13.1952 62.4378 56.2022
635 3 14.6299 61.6324 55.2933
636 4 16.0608 62.4417 56.2137
869 5 17.4917 60.0193 55.3114
870 6 18.9265 60.8265 56.218
873 1 17.4963 61.6349 55.3106
874 2 18.923 62.4434 56.2241
871 7 20.36 60.0214 55.3
872 8 21.7893 60.8249 56.2164
875 3 20.3536 61.6359 55.3135
876 4 21.7912 62.4408 56.2175
1109 5 23.2242 60.0215 55.3045
1110 6 24.6564 60.8254 56.2164
1113 1 23.2258 61.6353 55.3102
1114 2 24.6586 62.4409 56.2254
1111 7 26.094 60.021 55.311
1112 8 27.53 60.8235 56.2189
1115 3 26.092 61.6338 55.3095
1116 4 27.523 62.4384 56.2277
1349 5 28.966 60.0214 55.3111
1353 1 28.9581 61.6389 55.3142
1350 6 30.3917 60.8252 56.224
1351 7 31.8237 60.0206 55.3189
1354 2 30.3919 62.4395 56.2267
1355 3 31.8269 61.6387 55.3107
1352 8 33.2632 60.828 56.2307
1356 4 33.259 62.4415 56.2355
1589 5 34.6954 60.0193 55.3185
1593 1 34.6964 61.636 55.3224
1590 6 36.1265 60.8212 56.2352
1591 7 37.5593 60.0173 55.3182
1594 2 36.1254 62.4365 56.239
1595 3 37.5544 61.6297 55.3251
1592 8 38.9923 60.824 56.2361
1596 4 38.9933 62.4369 56.2343
1829 5 40.4267 60.0167 55.326
1830 6 41.8601 60.8222 56.2286
1833 1 40.4266 61.6306 55.319
1834 2 41.8556 62.4358 56.2291
1831 7 43.2899 60.0087 55.3171
1832 8 44.7219 60.8226 56.2214
1835 3 43.2893 61.6296 55.3143
1836 4 44.7252 62.4353 56.2315
2069 5 46.1553 60.0184 55.3212
2070 6 47.5896 60.8211 56.2339
2073 1 46.1584 61.6325 55.3172
2074 2 47.5928 62.4375 56.2432
157 5 0.302759 63.2452 55.2906
158 6 1.72961 64.0528 56.2021
159 7 3.16359 63.2472 55.3
161 1 0.296301 64.8568 55.2941
163 3 3.16528 64.861 55.2889
160 8 4.59733 64.0564 56.2013
397 5 6.0291 63.2484 55.2992
401 1 6.03168 64.8667 55.3028
398 6 7.46083 64.0543 56.2098
399 7 8.89309 63.2551 55.2945
403 3 8.89075 64.8675 55.3005
400 8 10.3269 64.0569 56.2028
637 5 11.7606 63.2491 55.2915
641 1 11.762 64.8621 55.2976
638 6 13.1932 64.0533 56.2084
639 7 14.6286 63.2484 55.3016
640 8 16.0616 64.0526 56.2259
643 3 14.6305 64.863 55.3024
877 5 17.4963 63.25 55.3136
878 6 18.9315 64.0561 56.2291
881 1 17.4966 64.8607 55.3236
879 7 20.3593 63.2471 55.3132
880 8 21.7947 64.0536 56.2232
883 3 20.3597 64.8613 55.3191
1117 5 23.2228 63.2492 55.3111
1118 6 24.6561 64.0527 56.2229
1121 1 23.2253 64.8624 55.3091
1119 7 26.0917 63.2498 55.3115
1120 8 27.5214 64.0502 56.2367
1123 3 26.087 64.8643 55.3239
1357 5 28.9569 63.2484 55.3213
1361 1 28.9587 64.8644 55.3317
1358 6 30.3903 64.0543 56.2332
1359 7 31.828 63.2499 55.318
1363 3 31.8281 64.8633 55.3337
1360 8 33.2603 64.0518 56.2362
1597 5 34.6966 63.2477 55.3318
1601 1 34.6903 64.8628 55.3266
1598 6 36.1271 64.0526 56.2423
1599 7 37.5569 63.2453 55.3225
1603 3 37.5545 64.8617 55.3274
1600 8 38.9879 64.0491 56.2338
1837 5 40.4249 63.2466 55.3192
1838 6 41.8563 64.0492 56.241
1841 1 40.4252 64.8607 55.3277
1839 7 43.2892 63.2476 55.3253
1840 8 44.7269 64.051 56.2401
1843 3 43.2912 64.8578 55.3237
2077 5 46.16 63.2465 55.3286
2078 6 47.5891 64.0515 56.2499
2081 1 46.1596 64.8596 55.3346
162 2 1.73419 65.6671 56.197
165 5 0.301737 66.4761 55.2954
166 6 1.73234 67.2805 56.2085
167 7 3.16367 66.4773 55.3009
169 1 0.296579 68.0884 55.2905
171 3 3.16718 68.0897 55.3057
164 4 4.59438 65.6676 56.2153
168 8 4.59749 67.2808 56.2205
405 5 6.03198 66.4793 55.3058
409 1 6.03251 68.093 55.3151
402 2 7.46087 65.6713 56.221
406 6 7.46367 67.2851 56.2254
407 7 8.89632 66.4794 55.3068
411 3 8.89806 68.0931 55.3134
404 4 10.3295 65.6684 56.2073
408 8 10.3292 67.2829 56.2131
645 5 11.7592 66.48 55.3018
649 1 11.7664 68.0927 55.3096
642 2 13.1952 65.6651 56.2063
644 4 16.0613 65.6668 56.2262
646 6 13.1978 67.2788 56.2217
647 7 14.6325 66.4761 55.3095
648 8 16.0677 67.2837 56.2267
651 3 14.6351 68.0912 55.3145
882 2 18.9276 65.6667 56.2343
885 5 17.4977 66.4754 55.3226
886 6 18.9315 67.2817 56.2312
889 1 17.5004 68.0908 55.3192
884 4 21.7956 65.6686 56.2261
887 7 20.3648 66.476 55.3204
888 8 21.7941 67.2822 56.225
891 3 20.3621 68.0899 55.3178
1122 2 24.6577 65.6697 56.2264
1125 5 23.2243 66.4764 55.3192
1126 6 24.656 67.2815 56.2348
1129 1 23.2289 68.0949 55.3258
1124 4 27.5212 65.6666 56.2456
1127 7 26.0991 66.4785 55.3249
1128 8 27.5258 67.2809 56.2552
1131 3 26.0988 68.0933 55.3418
1365 5 28.9619 66.4765 55.3413
1369 1 28.9587 68.0881 55.3517
1362 2 30.3918 65.6658 56.2381
1366 6 30.3928 67.2802 56.2542
1367 7 31.8231 66.4759 55.3385
1371 3 31.8247 68.0929 55.3449
1364 4 33.2613 65.6656 56.2479
1368 8 33.254 67.2794 56.2466
1605 5 34.6897 66.4762 55.3309
1609 1 34.6884 68.0909 55.328
1602 2 36.1216 65.6671 56.2409
1606 6 36.1222 67.2806 56.2447
1607 7 37.56 66.4728 55.3342
1611 3 37.557 68.0876 55.3259
1604 4 38.9917 65.6682 56.2396
1608 8 38.9899 67.284 56.2473
1842 2 41.852 65.6628 56.2388
1845 5 40.4257 66.4773 55.3346
1846 6 41.8601 67.2757 56.2536
1849 1 40.4249 68.087 55.343
1844 4 44.7203 65.6667 56.2458
1847 7 43.2854 66.4744 55.3336
1848 8 44.725 67.2796 56.2537
1851 3 43.2857 68.087 55.349
2082 2 47.5875 65.6683 56.2524
2085 5 46.1571 66.4755 55.3432
2086 6 47.5867 67.286 56.2533
2089 1 46.1569 68.0883 55.3399
170 2 1.72851 68.8957 56.2119
173 5 0.300316 69.7018 55.2931
174 6 1.72832 70.5117 56.2098
175 7 3.17013 69.7035 55.3124
177 1 0.296593 71.313 55.2951
179 3 3.16866 71.3193 55.3077
172 4 4.60247 68.8984 56.2297
176 8 4.60127 70.5135 56.2193
413 5 6.03456 69.7059 55.3161
417 1 6.03615 71.3185 55.3058
410 2 7.46652 68.9041 56.2273
414 6 7.4686 70.516 56.2182
415 7 8.90132 69.7048 55.3097
419 3 8.90077 71.317 55.3094
412 4 10.3347 68.8961 56.2266
416 8 10.3334 70.5137 56.2277
653 5 11.7669 69.7073 55.318
657 1 11.7696 71.3169 55.3111
650 2 13.1975 68.8949 56.2238
652 4 16.0684 68.8976 56.2269
654 6 13.2005 70.5107 56.226
655 7 14.6365 69.7043 55.3118
656 8 16.0622 70.5117 56.2333
659 3 14.6358 71.3189 55.3191
890 2 18.9342 68.8965 56.2417
893 5 17.5044 69.7043 55.3227
894 6 18.9282 70.5121 56.2308
897 1 17.4962 71.321 55.3224
892 4 21.7969 68.8956 56.2303
895 7 20.3627 69.7059 55.3214
896 8 21.7914 70.5137 56.2419
899 3 20.3629 71.3183 55.3194
1130 2 24.6622 68.8984 56.2461
1133 5 23.2327 69.706 55.3355
1134 6 24.6609 70.511 56.2588
1137 1 23.2337 71.3134 55.3432
1132 4 27.5303 68.8955 56.257
1135 7 26.0973 69.7088 55.3494
1136 8 27.5277 70.5096 56.2592
1139 3 26.1003 71.3212 55.3489
1373 5 28.9646 69.7036 55.349
1377 1 28.9633 71.3164 55.3555
1370 2 30.3941 68.8917 56.2586
1374 6 30.3962 70.508 56.2646
1375 7 31.8278 69.7013 55.3385
1379 3 31.8292 71.3142 55.3601
1372 4 33.2643 68.8943 56.2491
1376 8 33.2654 70.5055 56.2575
1613 5 34.6906 69.7022 55.3319
1617 1 34.6899 71.3172 55.3448
1610 2 36.1246 68.8905 56.2487
1614 6 36.1252 70.5043 56.2555
1615 7 37.5559 69.7014 55.3345
1619 3 37.5592 71.3168 55.3373
1612 4 38.988 68.8962 56.2447
1616 8 38.9949 70.5098 56.2434
1850 2 41.8573 68.8932 56.2661
1853 5 40.4305 69.7024 55.3429
1854 6 41.8599 70.5039 56.2607
1857 1 40.4285 71.3149 55.3408
1852 4 44.7264 68.8951 56.2479
1855 7 43.2887 69.6997 55.3477
1856 8 44.7227 70.5125 56.2525
1859 3 43.2911 71.3135 55.3432
2090 2 47.5875 68.8943 56.2361
2093 5 46.1534 69.7028 55.3294
2094 6 47.5887 70.509 56.2296
2097 1 46.153 71.3172 55.3341
178 2 1.73199 72.1233 56.205
181 5 0.298303 72.9277 55.2953
182 6 1.72903 73.74 56.2036
183 7 3.16763 72.9285 55.3024
185 1 0.299327 74.5406 55.2953
187 3 3.16481 74.5468 55.2938
180 4 4.59736 72.1273 56.2123
184 8 4.59762 73.7439 56.2033
421 5 6.03564 72.9306 55.3024
425 1 6.03156 74.5462 55.2983
418 2 7.46724 72.1271 56.2175
422 6 7.46835 73.7411 56.2144
423 7 8.89974 72.9319 55.3013
427 3 8.90346 74.5447 55.305
420 4 10.3364 72.1293 56.2176
424 8 10.3301 73.738 56.2164
661 5 11.7705 72.9277 55.3087
665 1 11.7644 74.5446 55.3121
658 2 13.1988 72.1248 56.2222
660 4 16.0667 72.1291 56.2276
662 6 13.2038 73.7384 56.2222
663 7 14.636 72.9318 55.3148
664 8 16.0702 73.7409 56.2245
667 3 14.6365 74.5455 55.3118
898 2 18.9295 72.1282 56.2281
901 5 17.4984 72.9327 55.3126
902 6 18.9297 73.7394 56.2259
905 1 17.5003 74.5484 55.3178
900 4 21.7977 72.1244 56.2354
903 7 20.3642 72.9326 55.3181
904 8 21.7936 73.7392 56.2327
907 3 20.3609 74.5466 55.3181
1138 2 24.6657 72.126 56.2508
1141 5 23.2314 72.9281 55.3364
1142 6 24.6582 73.7383 56.2536
1145 1 23.232 74.5467 55.3362
1140 4 27.5283 72.125 56.2627
1143 7 26.0997 72.9332 55.351
1144 8 27.5298 73.7391 56.2723
1147 3 26.101 74.5472 55.3586
1381 5 28.9675 72.9283 55.3625
1385 1 28.9678 74.5432 55.3709
1378 2 30.3994 72.1198 56.2734
1382 6 30.3994 73.7323 56.2781
1383 7 31.8308 72.9281 55.3646
1387 3 31.8284 74.5411 55.3697
1380 4 33.266 72.118 56.2633
1384 8 33.263 73.7334 56.2758
1621 5 34.6986 72.9326 55.3538
1625 1 34.6957 74.5437 55.3649
1618 2 36.1323 72.1196 56.2598
1622 6 36.129 73.7328 56.2716
1623 7 37.562 72.9295 55.3464
1627 3 37.5583 74.5455 55.36
1620 4 38.995 72.1198 56.2575
1624 8 39.0008 73.7359 56.2624
1858 2 41.8565 72.1171 56.2574
1861 5 40.4278 72.929 55.3464
1862 6 41.8628 73.7338 56.2557
1865 1 40.4273 74.5421 55.3523
1860 4 44.7248 72.1238 56.2494
1863 7 43.2891 72.9285 55.3382
1864 8 44.7256 73.7349 56.2455
1867 3 43.2898 74.5443 55.3428
2098 2 47.5908 72.1201 56.2269
2101 5 46.1548 72.9301 55.3276
2102 6 47.5912 73.7399 56.2383
2105 1 46.1562 74.5429 55.3248
186 2 1.73218 75.3553 56.1975
189 5 0.296134 76.1558 55.2852
190 6 1.73201 76.9676 56.1935
191 7 3.16593 76.1615 55.292
193 1 0.300276 77.7699 55.2842
195 3 3.17218 77.774 55.2801
188 4 4.59601 75.3591 56.2062
192 8 4.60176 76.9715 56.1928
429 5 6.03755 76.1618 55.2849
433 1 6.03538 77.7761 55.2907
426 2 7.46458 75.3558 56.2045
430 6 7.46214 76.9681 56.2072
431 7 8.89799 76.1582 55.3059
435 3 8.89857 77.771 55.307
428 4 10.3356 75.3485 56.2253
432 8 10.3297 76.9646 56.2264
669 5 11.7662 76.1604 55.3185
673 1 11.7623 77.7707 55.3197
666 2 13.1974 75.3521 56.2224
668 4 16.0642 75.3552 56.2234
670 6 13.1944 76.9677 56.2351
671 7 14.6267 76.162 55.3161
672 8 16.0601 76.9695 56.2304
675 3 14.6298 77.7761 55.3209
906 2 18.934 75.3511 56.2304
909 5 17.4959 76.1629 55.3156
910 6 18.932 76.9669 56.2346
913 1 17.5023 77.7749 55.3218
908 4 21.7955 75.353 56.2309
911 7 20.3666 76.1614 55.3219
912 8 21.7991 76.9655 56.2281
915 3 20.3666 77.7743 55.3298
1146 2 24.6607 75.3554 56.26
1149 5 23.2349 76.1597 55.324
1150 6 24.6577 76.9681 56.2481
1153 1 23.2343 77.7715 55.3181
1148 4 27.5301 75.3533 56.2759
1151 7 26.106 76.1614 55.3534
1152 8 27.5292 76.9684 56.2732
1155 3 26.0959 77.7751 55.3494
1389 5 28.9672 76.1577 55.3722
1393 1 28.9662 77.7716 55.3664
1386 2 30.3989 75.3463 56.2836
1390 6 30.3935 76.9655 56.2844
1391 7 31.8276 76.1533 55.3753
1395 3 31.8264 77.7678 55.3685
1388 4 33.2612 75.3479 56.2741
1392 8 33.2618 76.9618 56.2776
1629 5 34.6962 76.1583 55.3721
1633 1 34.6943 77.7689 55.38
1626 2 36.1277 75.3484 56.2784
1630 6 36.1287 76.9628 56.2806
1631 7 37.5637 76.1586 55.368
1635 3 37.557 77.7714 55.3581
1628 4 38.9964 75.3502 56.2694
1632 8 38.9912 76.9652 56.2726
1866 2 41.8652 75.3487 56.2641
1869 5 40.4297 76.157 55.3552
1870 6 41.8641 76.9619 56.2625
1873 1 40.424 77.7681 55.3576
1868 4 44.7297 75.3519 56.2496
1871 7 43.2939 76.1567 55.3408
1872 8 44.7315 76.9673 56.2481
1875 3 43.293 77.7718 55.3479
2106 2 47.5929 75.3509 56.2394
2109 5 46.1601 76.1564 55.3323
2110 6 47.5922 76.9668 56.2397
2113 1 46.1546 77.7688 55.3237
194 2 1.73557 78.5797 56.1884
197 5 0.306468 79.3836 55.2735
198 6 1.73969 80.1932 56.1861
199 7 3.17166 79.3883 55.273
201 1 0.303345 81.0016 55.2761
203 3 3.16901 81.0042 55.2778
196 4 4.60248 78.5852 56.1968
200 8 4.59723 80.1956 56.2008
437 5 6.03375 79.3888 55.2936
441 1 6.03475 81.0024 55.2963
434 2 7.46358 78.5787 56.2118
438 6 7.46032 80.1924 56.2152
439 7 8.89868 79.3883 55.3104
443 3 8.8962 81.0051 55.3169
436 4 10.3297 78.581 56.2243
440 8 10.3341 80.1932 56.2228
677 5 11.7659 79.385 55.3193
681 1 11.7656 81.0012 55.3074
674 2 13.1994 78.5825 56.2272
676 4 16.0688 78.5825 56.2264
678 6 13.1988 80.1948 56.2169
679 7 14.6312 79.3879 55.3137
680 8 16.0621 80.1991 56.2219
683 3 14.6315 81.0026 55.304
914 2 18.9356 78.582 56.2297
917 5 17.5007 79.3891 55.3234
918 6 18.9334 80.1972 56.2263
921 1 17.4973 81.0072 55.3201
916 4 21.8041 78.58 56.2328
919 7 20.3684 79.3867 55.3125
920 8 21.7961 80.1943 56.2323
923 3 20.3671 81.0009 55.3235
1154 2 24.6626 78.5816 56.2461
1157 5 23.2332 79.3873 55.3286
1158 6 24.6569 80.1962 56.2461
1161 1 23.2333 81.0023 55.3297
1156 4 27.5278 78.5855 56.2725
1159 7 26.1013 79.3893 55.3513
1160 8 27.527 80.1981 56.2554
1163 3 26.0965 81.0012 55.3411
1397 5 28.9687 79.3871 55.3678
1401 1 28.9635 81.0017 55.3532
1394 2 30.3982 78.5787 56.2841
1398 6 30.3956 80.1913 56.2757
1399 7 31.8267 79.383 55.3687
1403 3 31.829 80.9945 55.3562
1396 4 33.2626 78.574 56.2763
1400 8 33.26 80.1897 56.2659
1637 5 34.6981 79.3838 55.3548
1641 1 34.6941 80.9956 55.3611
1634 2 36.1289 78.5789 56.2726
1638 6 36.1297 80.1906 56.273
1639 7 37.5616 79.3854 55.355
1643 3 37.5633 80.9995 55.362
1636 4 38.9863 78.5771 56.2703
1640 8 38.9931 80.1897 56.2729
1874 2 41.8606 78.5775 56.2634
1877 5 40.423 79.3856 55.367
1878 6 41.8587 80.1892 56.262
1881 1 40.4242 80.9984 55.3565
1876 4 44.735 78.5818 56.2563
1879 7 43.2968 79.3857 55.3502
1880 8 44.7313 80.1937 56.26
1883 3 43.2873 80.9981 55.3506
2114 2 47.5947 78.5784 56.2351
2117 5 46.1552 79.3838 55.3357
2118 6 47.5952 80.1922 56.2346
2121 1 46.1571 80.9975 55.3377
202 2 1.73498 81.8058 56.1854
205 5 0.303843 82.615 55.2668
206 6 1.73022 83.4237 56.1907
207 7 3.16869 82.6157 55.2976
209 1 0.302663 84.2302 55.278
211 3 3.17057 84.2291 55.2845
204 4 4.59629 81.8096 56.2046
208 8 4.59677 83.4248 56.2122
445 5 6.03431 82.6168 55.3085
449 1 6.03145 84.2302 55.3186
442 2 7.45895 81.8076 56.2235
446 6 7.463 83.4232 56.2264
447 7 8.89686 82.6201 55.3096
451 3 8.89416 84.2331 55.3196
444 4 10.3321 81.8065 56.221
448 8 10.3317 83.4205 56.2196
685 5 11.7618 82.6135 55.3035
689 1 11.7627 84.2294 55.3092
682 2 13.1984 81.8102 56.2152
684 4 16.0654 81.8097 56.2238
686 6 13.2007 83.4244 56.2113
687 7 14.636 82.6166 55.3038
688 8 16.0669 83.422 56.218
691 3 14.6356 84.2326 55.3011
922 2 18.9346 81.8119 56.233
925 5 17.4998 82.6185 55.3265
926 6 18.9331 83.4243 56.2367
929 1 17.5025 84.2311 55.3121
924 4 21.8009 81.8078 56.2333
927 7 20.3688 82.6157 55.3262
928 8 21.7942 83.4227 56.2359
931 3 20.3655 84.2312 55.3261
1162 2 24.6588 81.8119 56.246
1165 5 23.2309 82.6178 55.3299
1166 6 24.6661 83.4237 56.2496
1169 1 23.2332 84.2304 55.338
1164 4 27.528 81.8115 56.2515
1167 7 26.0996 82.616 55.3365
1168 8 27.5302 83.4238 56.245
1171 3 26.0979 84.2313 55.3409
1405 5 28.9629 82.6133 55.3379
1409 1 28.9632 84.2272 55.3338
1402 2 30.3912 81.8054 56.2577
1406 6 30.3915 83.4199 56.2568
1407 7 31.8264 82.6069 55.3489
1411 3 31.8299 84.2212 55.3399
1404 4 33.261 81.8053 56.2729
1408 8 33.2582 83.4226 56.2649
1645 5 34.6892 82.6097 55.361
1649 1 34.6932 84.2262 55.3571
1642 2 36.1255 81.8062 56.2664
1646 6 36.1202 83.4227 56.2652
1647 7 37.5596 82.611 55.3591
1651 3 37.5579 84.2244 55.354
1644 4 38.9965 81.8068 56.2777
1648 8 38.9949 83.4191 56.2687
1882 2 41.8596 81.807 56.2663
1885 5 40.4258 82.6135 55.3569
1886 6 41.8621 83.422 56.2688
1889 1 40.4246 84.2269 55.36
1884 4 44.7282 81.8116 56.2504
1887 7 43.2887 82.6137 55.3541
1888 8 44.7295 83.4238 56.2493
1891 3 43.2899 84.2251 55.3434
2122 2 47.5947 81.8047 56.2369
2125 5 46.1553 82.6101 55.3294
2126 6 47.5906 83.4203 56.2341
2129 1 46.1537 84.2251 55.3261
210 2 1.73146 85.0357 56.1978
213 5 0.301661 85.8438 55.2834
214 6 1.72981 86.6485 56.2082
215 7 3.16438 85.8441 55.2937
217 1 0.302117 87.4567 55.2957
219 3 3.16041 87.4578 55.3031
212 4 4.59424 85.0368 56.2163
216 8 4.59281 86.6498 56.2177
453 5 6.02879 85.8469 55.3054
457 1 6.03132 87.4603 55.3106
450 2 7.45826 85.0388 56.2326
454 6 7.46146 86.6545 56.2311
455 7 8.89343 85.8464 55.3181
459 3 8.89036 87.4571 55.3146
452 4 10.3273 85.0384 56.2216
456 8 10.3284 86.6505 56.2229
693 5 11.7562 85.845 55.3174
697 1 11.7609 87.4592 55.3151
690 2 13.1977 85.0384 56.2151
692 4 16.0664 85.0367 56.2208
694 6 13.1933 86.6513 56.2164
695 7 14.6306 85.8485 55.3103
696 8 16.0582 86.6473 56.2287
699 3 14.6249 87.4627 55.3101
930 2 18.928 85.0374 56.2315
933 5 17.5024 85.8466 55.3223
934 6 18.9274 86.6504 56.2377
937 1 17.4958 87.4612 55.3309
932 4 21.7981 85.036 56.2381
935 7 20.3644 85.8428 55.3241
936 8 21.7969 86.647 56.2438
939 3 20.3632 87.458 55.3383
1170 2 24.6633 85.0374 56.2544
1173 5 23.2324 85.8451 55.338
1174 6 24.6662 86.6525 56.2566
1177 1 23.232 87.4601 55.3398
1172 4 27.5293 85.0348 56.25
1175 7 26.0979 85.8485 55.3422
1176 8 27.5281 86.6496 56.2574
1179 3 26.0967 87.4604 55.3465
1413 5 28.9602 85.8406 55.3414
1417 1 28.9611 87.4584 55.3531
1410 2 30.3921 85.0338 56.2478
1414 6 30.392 86.6461 56.2541
1415 7 31.8292 85.8368 55.342
1419 3 31.8295 87.4528 55.3552
1412 4 33.252 85.0308 56.2602
1416 8 33.258 86.6441 56.2586
1653 5 34.6877 85.8412 55.3633
1657 1 34.6921 87.452 55.3628
1650 2 36.1247 85.0342 56.2677
1654 6 36.1286 86.6493 56.2686
1655 7 37.5556 85.8406 55.3518
1659 3 37.5584 87.4533 55.3533
1652 4 38.9927 85.0341 56.261
1656 8 38.9932 86.6493 56.2558
1890 2 41.8591 85.0379 56.2592
1893 5 40.4234 85.8404 55.3452
1894 6 41.8596 86.6501 56.2588
1897 1 40.4202 87.4559 55.348
1892 4 44.7226 85.0354 56.239
1895 7 43.287 85.842 55.3404
1896 8 44.7227 86.648 56.2384
1899 3 43.2907 87.4566 55.3377
2130 2 47.592 85.0369 56.229
2133 5 46.1547 85.84 55.3175
2134 6 47.5925 86.6496 56.2273
2137 1 46.1569 87.4538 55.3209
218 2 1.72929 88.2626 56.2144
221 5 0.303915 89.0689 55.3018
222 6 1.73019 89.8747 56.2143
223 7 3.16241 89.0717 55.3069
220 4 4.59444 88.2604 56.222
224 8 4.59788 89.8779 56.2228
461 5 6.03084 89.071 55.3115
458 2 7.46273 88.2669 56.2228
462 6 7.46048 89.8829 56.219
463 7 8.89795 89.0714 55.3107
460 4 10.3263 88.2649 56.2208
464 8 10.3223 89.8807 56.2186
701 5 11.7604 89.0756 55.3181
698 2 13.1927 88.2647 56.2285
700 4 16.0546 88.2657 56.2345
702 6 13.1958 89.8796 56.2355
703 7 14.6234 89.0752 55.3111
704 8 16.0619 89.8819 56.231
938 2 18.9252 88.2705 56.2382
941 5 17.4945 89.0739 55.3259
942 6 18.9291 89.8813 56.2332
940 4 21.7985 88.2638 56.2458
943 7 20.3608 89.0712 55.3306
944 8 21.7949 89.8766 56.2419
1178 2 24.6599 88.2652 56.2536
1181 5 23.2298 89.0725 55.3352
1182 6 24.6547 89.8764 56.2629
1180 4 27.5251 88.2636 56.2618
1183 7 26.0947 89.0745 55.353
1184 8 27.5235 89.8795 56.2679
1421 5 28.9563 89.0713 55.3538
1418 2 30.3927 88.2601 56.2685
1422 6 30.3892 89.8772 56.2659
1423 7 31.8242 89.0679 55.3545
1420 4 33.2588 88.2607 56.2622
1424 8 33.2597 89.8742 56.2688
1661 5 34.6941 89.0673 55.3543
1658 2 36.128 88.2639 56.2615
1662 6 36.1199 89.8787 56.2597
1663 7 37.558 89.0717 55.352
1660 4 38.9924 88.2643 56.259
1664 8 38.9908 89.8807 56.2518
1898 2 41.8606 88.2645 56.253
1901 5 40.4207 89.0675 55.3383
1902 6 41.8544 89.8802 56.2422
1900 4 44.729 88.2599 56.2396
1903 7 43.2849 89.0698 55.3275
1904 8 44.7261 89.8761 56.2346
2138 2 47.5937 88.2647 56.2354
2141 5 46.1546 89.0707 55.3182
2142 6 47.5922 89.8783 56.2211
225 1 0.303254 90.6856 55.3038
226 2 1.73159 91.4891 56.2225
227 3 3.16575 90.6867 55.315
229 5 0.304873 92.3002 55.3014
230 6 1.72943 93.1052 56.2195
231 7 3.16354 92.3027 55.3133
228 4 4.59892 91.4914 56.227
232 8 4.59698 93.1047 56.22
465 1 6.03059 90.6864 55.3076
469 5 6.02763 92.2995 55.3059
466 2 7.46088 91.496 56.2213
467 3 8.89507 90.686 55.3087
470 6 7.46513 93.1052 56.217
471 7 8.9008 92.2998 55.3113
468 4 10.3309 91.4917 56.2239
472 8 10.3318 93.1063 56.2216
705 1 11.7647 90.6871 55.3224
709 5 11.7662 92.299 55.3254
706 2 13.195 91.4899 56.2366
707 3 14.6258 90.6891 55.3175
708 4 16.0629 91.4938 56.2195
710 6 13.1986 93.1057 56.2352
711 7 14.6261 92.302 55.322
712 8 16.0664 93.1058 56.2343
945 1 17.4951 90.685 55.3209
946 2 18.9271 91.4966 56.2249
949 5 17.4954 92.3034 55.3113
950 6 18.9277 93.1072 56.218
947 3 20.3636 90.6872 55.3258
948 4 21.7891 91.4926 56.2485
951 7 20.3689 92.2996 55.3184
952 8 21.7937 93.1055 56.2429
1185 1 23.2289 90.6862 55.3417
1186 2 24.6544 91.4904 56.2576
1189 5 23.2323 92.2993 55.3425
1190 6 24.6595 93.1059 56.2628
1187 3 26.0915 90.6901 55.3551
1188 4 27.5276 91.4938 56.274
1191 7 26.0973 92.3012 55.3628
1192 8 27.5271 93.1079 56.2782
1425 1 28.9558 90.6851 55.3589
1429 5 28.956 92.2984 55.36
1426 2 30.3916 91.4909 56.2593
1427 3 31.8278 90.6821 55.3515
1430 6 30.3923 93.1052 56.2636
1431 7 31.8265 92.2964 55.3477
1428 4 33.2605 91.4896 56.2584
1432 8 33.2589 93.1043 56.2623
1665 1 34.6943 90.6813 55.3507
1669 5 34.6904 92.2972 55.3478
1666 2 36.1253 91.4919 56.2613
1667 3 37.5526 90.6829 55.3446
1670 6 36.1278 93.1065 56.2577
1671 7 37.5503 92.2991 55.3439
1668 4 38.9917 91.4947 56.2478
1672 8 38.9893 93.1067 56.2424
1905 1 40.4209 90.683 55.3329
1906 2 41.8552 91.4933 56.235
1909 5 40.4213 92.2972 55.3284
1910 6 41.8558 93.1064 56.2353
1907 3 43.2905 90.6807 55.328
1908 4 44.7227 91.4904 56.2318
1911 7 43.2889 92.2956 55.323
1912 8 44.7222 93.1053 56.2301
2145 1 46.1581 90.6842 55.3188
2146 2 47.593 91.4901 56.2306
2149 5 46.1592 92.297 55.3193
2150 6 47.59 93.1046 56.224
233 1 0.302984 93.9125 55.2997
234 2 1.73009 94.7218 56.2242
235 3 3.16312 93.9151 55.3146
237 5 0.29904 95.5275 55.296
238 6 1.73141 96.334 56.2193
239 7 3.16336 95.5293 55.313
236 4 4.60172 94.7173 56.2247
240 8 4.5975 96.332 56.2313
473 1 6.03003 93.915 55.308
477 5 6.03296 95.5292 55.3073
474 2 7.46822 94.7205 56.2178
475 3 8.89851 93.9162 55.3074
478 6 7.46488 96.3321 56.2233
479 7 8.89769 95.5282 55.3129
476 4 10.3294 94.7208 56.2226
480 8 10.3288 96.3362 56.2207
713 1 11.7693 93.9107 55.3236
717 5 11.7673 95.5246 55.3057
714 2 13.1979 94.7239 56.2303
715 3 14.6288 93.9127 55.3176
716 4 16.0654 94.7195 56.2305
718 6 13.1922 96.3327 56.2204
719 7 14.6311 95.5268 55.3168
720 8 16.0715 96.3347 56.2256
953 1 17.4959 93.9179 55.3237
954 2 18.93 94.7234 56.2292
957 5 17.502 95.5297 55.32
958 6 18.9322 96.3366 56.2292
955 3 20.364 93.9137 55.3192
956 4 21.791 94.7186 56.2461
959 7 20.3626 95.5292 55.3189
960 8 21.7904 96.3323 56.2423
1193 1 23.2338 93.9118 55.3515
1194 2 24.6558 94.7186 56.2574
1197 5 23.2283 95.5271 55.3406
1198 6 24.6548 96.3325 56.2565
1195 3 26.101 93.9131 55.3638
1196 4 27.5269 94.718 56.2767
1199 7 26.0959 95.528 55.3645
1200 8 27.5296 96.3357 56.2756
1433 1 28.9579 93.9124 55.3513
1437 5 28.9587 95.5249 55.3634
1434 2 30.3942 94.7215 56.2588
1435 3 31.826 93.9114 55.3533
1438 6 30.3937 96.3312 56.2542
1439 7 31.8256 95.5264 55.3409
1436 4 33.2578 94.7215 56.2557
1440 8 33.2614 96.335 56.2477
1673 1 34.6885 93.9114 55.3491
1677 5 34.6906 95.527 55.3407
1674 2 36.1221 94.7197 56.2524
1675 3 37.5539 93.9119 55.3402
1678 6 36.1229 96.3361 56.2443
1679 7 37.558 95.5276 55.3416
1676 4 38.9896 94.7205 56.2508
1680 8 38.9904 96.3357 56.2508
1913 1 40.4232 93.9124 55.3276
1914 2 41.8562 94.7182 56.2334
1917 5 40.4194 95.5271 55.3346
1918 6 41.8573 96.3312 56.2407
1915 3 43.2917 93.9108 55.3242
1916 4 44.725 94.7236 56.2349
1919 7 43.2935 95.5268 55.3294
1920 8 44.7268 96.3348 56.2322
2153 1 46.1525 93.9118 55.3182
2154 2 47.5845 94.7174 56.2177
2157 5 46.1584 95.5306 55.3131
2158 6 47.59 96.3321 56.2288
1923 3 49.0222 0.303449 55.3247
1924 4 50.4596 1.10507 56.2391
1927 7 49.0248 1.91805 55.3353
1928 8 50.461 2.72292 56.2453
2161 1 51.8871 0.300405 55.329
2165 5 51.887 1.91097 55.3283
2162 2 53.3234 1.10646 56.234
2163 3 54.7545 0.302013 55.3185
2166 6 53.3219 2.71699 56.2347
2167 7 54.7526 1.91442 55.3128
2164 4 56.1892 1.10559 56.228
2168 8 56.1903 2.72199 56.2153
2401 1 57.6157 0.297478 55.3103
2405 5 57.6141 1.91176 55.3154
2402 2 59.0563 1.10336 56.208
2403 3 60.4823 0.298264 55.2844
2406 6 59.0549 2.72074 56.2067
2407 7 60.4791 1.91347 55.2852
2404 4 61.9185 1.10471 56.1845
2408 8 61.9198 2.72016 56.1855
2641 1 63.3429 0.301457 55.2606
2642 2 64.7868 1.10521 56.1575
2645 5 63.3469 1.91819 55.2681
2646 6 64.7885 2.72163 56.1687
2643 3 66.2141 0.299579 55.2328
2644 4 67.6519 1.10615 56.144
2647 7 66.2114 1.91286 55.2452
2648 8 67.6505 2.72337 56.1513
2881 1 69.0852 0.304211 55.2306
2882 2 70.5149 1.10779 56.1551
2885 5 69.0819 1.9176 55.2389
2886 6 70.5198 2.72315 56.1524
2883 3 71.9521 0.297199 55.2494
2884 4 73.3779 1.10613 56.1637
2887 7 71.9505 1.91182 55.2422
2888 8 73.3833 2.7202 56.1604
3121 1 74.8183 0.298353 55.269
3122 2 76.252 1.1036 56.1803
3123 3 77.6853 0.297433 55.2796
3125 5 74.8201 1.90871 55.2668
3126 6 76.2498 2.71487 56.1778
3127 7 77.6822 1.91032 55.2682
3124 4 79.1144 1.10257 56.1917
3128 8 79.1143 2.71772 56.1887
3361 1 80.543 0.29699 55.2731
3365 5 80.5472 1.9127 55.278
3362 2 81.9795 1.10407 56.1807
3363 3 83.4179 0.297042 55.2706
3366 6 81.9818 2.71746 56.1899
3367 7 83.4108 1.91612 55.2704
3364 4 84.8491 1.10396 56.176
3368 8 84.8465 2.72 56.1758
3601 1 86.2846 0.300165 55.2648
3605 5 86.282 1.91343 55.2745
3602 2 87.7149 1.10422 56.185
3603 3 89.1487 0.302408 55.261
3604 4 90.5789 1.10247 56.1805
3606 6 87.7103 2.71646 56.1938
3607 7 89.1498 1.91659 55.2762
3608 8 90.579 2.71799 56.1863
3841 1 92.0125 0.300659 55.2744
3842 2 93.4447 1.10772 56.1904
3845 5 92.0087 1.91334 55.2678
3846 6 93.4432 2.72064 56.1847
3843 3 94.8763 0.300383 55.2784
3844 4 96.3068 1.10594 56.1931
3847 7 94.8776 1.91588 55.2769
3848 8 96.3032 2.7189 56.1896
1931 3 49.0235 3.52761 55.3416
1932 4 50.4553 4.33463 56.2475
1935 7 49.0225 5.14288 55.3285
1936 8 50.4533 5.94985 56.2453
2169 1 51.8867 3.52759 55.3284
2173 5 51.8887 5.14143 55.3339
2170 2 53.3202 4.33201 56.2372
2171 3 54.7503 3.52768 55.3174
2174 6 53.3218 5.94766 56.2396
2175 7 54.7495 5.13748 55.3124
2172 4 56.1895 4.33364 56.2166
2176 8 56.1837 5.94856 56.2182
2409 1 57.6173 3.52547 55.2946
2413 5 57.6118 5.1396 55.2934
2410 2 59.0516 4.3335 56.1974
2411 3 60.4827 3.52583 55.2801
2414 6 59.0517 5.95 56.1997
2415 7 60.4793 5.14291 55.2789
2412 4 61.9226 4.33439 56.1902
2416 8 61.9179 5.94782 56.1863
2649 1 63.3497 3.52709 55.2714
2650 2 64.7862 4.3342 56.1739
2653 5 63.3492 5.13909 55.2713
2654 6 64.7885 5.94625 56.1712
2651 3 66.2173 3.52696 55.2493
2652 4 67.6524 4.33715 56.1532
2655 7 66.2155 5.13829 55.2445
2656 8 67.6515 5.94824 56.1525
2889 1 69.0858 3.53267 55.2402
2890 2 70.5157 4.33417 56.1575
2893 5 69.0841 5.14655 55.2473
2894 6 70.5196 5.94932 56.1543
2891 3 71.9531 3.52461 55.2414
2892 4 73.38 4.33168 56.1572
2895 7 71.9548 5.13909 55.2392
2896 8 73.3822 5.94709 56.1594
3129 1 74.8261 3.52309 55.2621
3130 2 76.2531 4.32822 56.1788
3131 3 77.6868 3.52428 55.2698
3133 5 74.8242 5.14009 55.2552
3134 6 76.2477 5.94589 56.1782
3135 7 77.6867 5.13585 55.2724
3132 4 79.1158 4.33193 56.1782
3136 8 79.1165 5.94726 56.1855
3369 1 80.5533 3.52487 55.2804
3373 5 80.5477 5.14097 55.2809
3370 2 81.9793 4.33172 56.192
3371 3 83.4112 3.53001 55.2757
3374 6 81.979 5.94654 56.185
3375 7 83.4162 5.14433 55.2846
3372 4 84.8476 4.3335 56.1797
3376 8 84.8494 5.94715 56.1899
3609 1 86.2836 3.52395 55.2761
3613 5 86.2808 5.13548 55.2758
3610 2 87.7125 4.32978 56.1972
3611 3 89.144 3.52803 55.2895
3612 4 90.5848 4.3356 56.1959
3614 6 87.7052 5.94218 56.1945
3615 7 89.145 5.14015 55.2932
3616 8 90.5789 5.95101 56.195
3849 1 92.012 3.52839 55.2723
3850 2 93.4504 4.33476 56.1924
3853 5 92.0196 5.14483 55.2819
3854 6 93.4456 5.94832 56.2023
3851 3 94.8782 3.53366 55.2746
3852 4 96.3108 4.33572 56.2036
3855 7 94.8819 5.14912 55.2849
3856 8 96.3129 5.94957 56.209
1939 3 49.0171 6.75615 55.3376
1940 4 50.4509 7.56221 56.2436
1943 7 49.0196 8.37315 55.3292
1944 8 50.4497 9.17789 56.2421
2177 1 51.8849 6.75671 55.3307
2181 5 51.8851 8.36714 55.333
2178 2 53.3233 7.56313 56.2485
2179 3 54.7447 6.75379 55.3091
2182 6 53.3197 9.17673 56.2443
2183 7 54.748 8.36847 55.3164
2180 4 56.1813 7.56251 56.2136
2184 8 56.1871 9.17878 56.2181
2417 1 57.6153 6.75153 55.2985
2421 5 57.6126 8.36726 55.302
2418 2 59.0511 7.56111 56.2089
2419 3 60.4848 6.7556 55.2844
2422 6 59.0506 9.17502 56.2084
2423 7 60.4843 8.36959 55.289
2420 4 61.9207 7.56212 56.1797
2424 8 61.9181 9.17641 56.1863
2657 1 63.3523 6.75302 55.271
2658 2 64.7892 7.5643 56.1708
2661 5 63.3502 8.36695 55.2687
2662 6 64.7889 9.17927 56.1702
2659 3 66.2167 6.75248 55.2475
2660 4 67.6541 7.56142 56.1588
2663 7 66.218 8.3684 55.2572
2664 8 67.6543 9.17576 56.1567
2897 1 69.089 6.75705 55.2427
2898 2 70.5231 7.56206 56.1553
2901 5 69.0871 8.36934 55.2437
2902 6 70.5154 9.17911 56.1622
2899 3 71.9515 6.75531 55.2438
2900 4 73.3823 7.56144 56.1549
2903 7 71.9495 8.37094 55.2468
2904 8 73.3836 9.17591 56.1592
3137 1 74.8223 6.75511 55.2537
3138 2 76.2475 7.55957 56.1729
3139 3 77.6875 6.75144 55.2724
3141 5 74.8202 8.36897 55.2538
3142 6 76.2454 9.17416 56.1662
3143 7 77.6854 8.36564 55.2646
3140 4 79.115 7.56555 56.1858
3144 8 79.1108 9.17808 56.1845
3377 1 80.5512 6.75603 55.2773
3381 5 80.5534 8.3666 55.2827
3378 2 81.9834 7.56336 56.1929
3379 3 83.4142 6.75498 55.2815
3382 6 81.984 9.17603 56.2035
3383 7 83.4139 8.37142 55.2812
3380 4 84.8498 7.56428 56.19
3384 8 84.8462 9.17985 56.1914
3617 1 86.2804 6.75412 55.2814
3621 5 86.2838 8.36713 55.2872
3618 2 87.711 7.5561 56.201
3619 3 89.1415 6.75636 55.2859
3620 4 90.5786 7.56271 56.2024
3622 6 87.7122 9.1725 56.2058
3623 7 89.1461 8.37081 55.2901
3624 8 90.5796 9.17912 56.2112
3857 1 92.0146 6.75718 55.2985
3858 2 93.4443 7.56183 56.2095
3861 5 92.0128 8.37162 55.2981
3862 6 93.4426 9.17887 56.2108
3859 3 94.8796 6.76271 55.2991
3860 4 96.3125 7.56703 56.2183
3863 7 94.8775 8.37419 55.3003
3864 8 96.3118 9.18335 56.2119
1947 3 49.0199 9.98594 55.3261
1948 4 50.4503 10.7936 56.2358
1951 7 49.0193 11.5984 55.3236
1952 8 50.4509 12.4057 56.2417
2185 1 51.884 9.9829 55.3388
2189 5 51.8822 11.5954 55.3313
2186 2 53.316 10.7927 56.2413
2187 3 54.7458 9.9844 55.3125
2190 6 53.3188 12.4059 56.2345
2191 7 54.7491 11.5987 55.3204
2188 4 56.1865 10.7895 56.2167
2192 8 56.1861 12.4047 56.2219
2425 1 57.6146 9.97895 55.2974
2429 5 57.6155 11.5976 55.3012
2426 2 59.0521 10.7897 56.21
2427 3 60.4797 9.98391 55.2905
2430 6 59.0547 12.4034 56.209
2431 7 60.4781 11.5958 55.2841
2428 4 61.9181 10.7905 56.1781
2432 8 61.921 12.4024 56.1834
2665 1 63.35 9.97806 55.2605
2666 2 64.7887 10.7907 56.1646
2669 5 63.3476 11.5941 55.2577
2670 6 64.7855 12.4042 56.1624
2667 3 66.2172 9.9821 55.2509
2668 4 67.6499 10.7883 56.1523
2671 7 66.2167 11.5973 55.2455
2672 8 67.6538 12.4047 56.1492
2905 1 69.0926 9.98202 55.2421
2906 2 70.5198 10.7903 56.1494
2909 5 69.0867 11.5942 55.2457
2910 6 70.52 12.4027 56.147
2907 3 71.9465 9.98204 55.2379
2908 4 73.3808 10.7894 56.1513
2911 7 71.9504 11.5982 55.2357
2912 8 73.3804 12.4039 56.1477
3145 1 74.8172 9.98233 55.2515
3146 2 76.2463 10.7869 56.1657
3147 3 77.6828 9.98022 55.2588
3149 5 74.8167 11.5935 55.2538
3150 6 76.2448 12.4011 56.165
3151 7 77.6807 11.5919 55.2558
3148 4 79.1093 10.7934 56.1772
3152 8 79.1093 12.4035 56.1748
3385 1 80.5476 9.97882 55.2799
3389 5 80.5469 11.5929 55.2706
3386 2 81.9725 10.789 56.1895
3387 3 83.4147 9.98465 55.2855
3390 6 81.9773 12.4002 56.1898
3391 7 83.412 11.5978 55.2922
3388 4 84.8438 10.7891 56.2036
3392 8 84.8429 12.4047 56.2073
3625 1 86.2813 9.98293 55.2917
3629 5 86.2803 11.5976 55.2983
3626 2 87.7145 10.7872 56.2065
3627 3 89.1441 9.98595 55.3028
3628 4 90.5826 10.7938 56.2088
3630 6 87.7124 12.3973 56.2104
3631 7 89.1438 11.5968 55.2992
3632 8 90.5776 12.4052 56.2025
3865 1 92.0138 9.98402 55.2954
3866 2 93.4442 10.7931 56.2157
3869 5 92.0109 11.5979 55.2894
3870 6 93.4417 12.4086 56.2066
3867 3 94.8797 9.99081 55.302
3868 4 96.3112 10.7942 56.2118
3871 7 94.8739 11.6045 55.2919
3872 8 96.3063 12.4074 56.2071
1955 3 49.0166 13.209 55.3312
1956 4 50.4543 14.017 56.2361
1959 7 49.0153 14.8242 55.3263
2193 1 51.8828 13.2084 55.3164
2197 5 51.8816 14.8217 55.3149
2194 2 53.3179 14.0173 56.2219
2195 3 54.7493 13.2107 55.3224
2199 7 54.7515 14.823 55.3058
2196 4 56.187 14.0179 56.2258
2433 1 57.6102 13.2099 55.3058
2437 5 57.6152 14.8235 55.3066
2434 2 59.0538 14.0188 56.205
2435 3 60.4809 13.2102 55.2808
2439 7 60.4839 14.8221 55.2789
2436 4 61.9222 14.0187 56.1734
2673 1 63.3516 13.209 55.2561
2674 2 64.7878 14.0212 56.163
2677 5 63.3504 14.8213 55.2511
2675 3 66.2204 13.2143 55.2462
2676 4 67.6521 14.0173 56.1557
2679 7 66.2142 14.8278 55.2436
2913 1 69.0827 13.2095 55.2348
2914 2 70.5201 14.0168 56.1448
2917 5 69.0801 14.8203 55.2398
2915 3 71.9473 13.2091 55.2296
2916 4 73.3779 14.0146 56.1464
2919 7 71.9574 14.8249 55.2197
3153 1 74.8132 13.2071 55.2453
3154 2 76.245 14.0151 56.1543
3155 3 77.6818 13.2079 55.2537
3157 5 74.8151 14.8208 55.2374
3159 7 77.6809 14.8208 55.2535
3156 4 79.1128 14.0157 56.1701
3393 1 80.5519 13.2082 55.2714
3397 5 80.5514 14.8238 55.2676
3394 2 81.9769 14.0172 56.1965
3395 3 83.4164 13.2104 55.2914
3399 7 83.4261 14.8235 55.2903
3396 4 84.8469 14.0179 56.212
3633 1 86.2789 13.2101 55.2995
3637 5 86.2803 14.8242 55.2985
3634 2 87.7089 14.0151 56.2084
3635 3 89.146 13.2111 55.2956
3636 4 90.5758 14.0213 56.1941
3639 7 89.1394 14.8251 55.2929
3873 1 92.0113 13.2096 55.2903
3874 2 93.4428 14.0219 56.2127
3877 5 92.012 14.8237 55.283
3875 3 94.8756 13.2166 55.2993
3876 4 96.3077 14.0193 56.2066
3879 7 94.8771 14.8281 55.2976
1960 8 50.4553 15.6299 56.2382
1963 3 49.0182 16.4376 55.3205
1964 4 50.4518 17.2457 56.2382
1967 7 49.013 18.0505 55.3231
2201 1 51.883 16.4382 55.3162
2205 5 51.8835 18.0517 55.3257
2198 6 53.3206 15.6297 56.2178
2202 2 53.3192 17.2424 56.2201
2203 3 54.7547 16.4384 55.2982
2207 7 54.7474 18.0498 55.306
2200 8 56.187 15.6285 56.2125
2204 4 56.1866 17.2451 56.2108
2441 1 57.6159 16.4382 55.2993
2445 5 57.6125 18.0533 55.2903
2438 6 59.0551 15.6332 56.2018
2442 2 59.0551 17.2444 56.2002
2443 3 60.4821 16.438 55.2803
2447 7 60.4821 18.0516 55.2784
2440 8 61.9298 15.6309 56.1736
2444 4 61.9283 17.2462 56.1732
2678 6 64.7877 15.634 56.1574
2681 1 63.3521 16.4381 55.2534
2682 2 64.7892 17.2456 56.1601
2685 5 63.3555 18.0533 55.2496
2680 8 67.6528 15.6331 56.148
2683 3 66.22 16.4394 55.2351
2684 4 67.6506 17.2459 56.1487
2687 7 66.2185 18.0533 55.2294
2918 6 70.5186 15.632 56.1371
2921 1 69.085 16.4376 55.2386
2922 2 70.5183 17.2442 56.1406
2925 5 69.0828 18.0525 55.2345
2920 8 73.3824 15.6263 56.1375
2923 3 71.9547 16.4379 55.2297
2924 4 73.3832 17.2412 56.1479
2927 7 71.9525 18.0506 55.2367
3158 6 76.2445 15.6268 56.1563
3161 1 74.8167 16.4365 55.242
3162 2 76.2522 17.238 56.1626
3163 3 77.6839 16.4359 55.2539
3165 5 74.8209 18.0483 55.2476
3167 7 77.6845 18.0496 55.2596
3160 8 79.1142 15.628 56.1636
3164 4 79.1143 17.2428 56.1745
3401 1 80.5464 16.437 55.2631
3405 5 80.552 18.0494 55.2676
3398 6 81.978 15.6286 56.1894
3402 2 81.9754 17.2456 56.1848
3403 3 83.4192 16.4365 55.2814
3407 7 83.416 18.048 55.2763
3400 8 84.8454 15.6348 56.2063
3404 4 84.8447 17.2486 56.1997
3641 1 86.2793 16.4401 55.2992
3645 5 86.2846 18.0504 55.2917
3638 6 87.7109 15.6323 56.2037
3640 8 90.5809 15.6345 56.1885
3642 2 87.7152 17.2508 56.2015
3643 3 89.1418 16.4372 55.2837
3644 4 90.5784 17.2467 56.1881
3647 7 89.1485 18.0509 55.285
3878 6 93.4415 15.6375 56.2003
3881 1 92.0157 16.4401 55.2811
3882 2 93.4454 17.2502 56.1963
3885 5 92.0165 18.0533 55.2819
3880 8 96.3133 15.6369 56.2054
3883 3 94.8799 16.4406 55.2924
3884 4 96.3145 17.2525 56.196
3887 7 94.881 18.0534 55.2848
1968 8 50.4523 18.8612 56.241
1971 3 49.018 19.6672 55.3236
1972 4 50.4551 20.4782 56.2416
1975 7 49.0181 21.284 55.3288
2209 1 51.8803 19.6661 55.3168
2213 5 51.8792 21.2798 55.3181
2206 6 53.3196 18.8573 56.2199
2210 2 53.3144 20.4716 56.2237
2211 3 54.747 19.6674 55.3044
2215 7 54.746 21.2845 55.3174
2208 8 56.1853 18.8578 56.2092
2212 4 56.1836 20.4697 56.2131
2449 1 57.6122 19.6676 55.2889
2453 5 57.6135 21.2841 55.2991
2446 6 59.051 18.8571 56.1946
2450 2 59.0515 20.4737 56.1965
2451 3 60.4772 19.665 55.2785
2455 7 60.481 21.2809 55.2758
2448 8 61.9256 18.8575 56.1731
2452 4 61.9189 20.4732 56.1767
2686 6 64.7869 18.8585 56.1547
2689 1 63.346 19.6687 55.2566
2690 2 64.7875 20.4755 56.1607
2693 5 63.3486 21.2832 55.2604
2688 8 67.6541 18.8583 56.1451
2691 3 66.2159 19.6689 55.2418
2692 4 67.6495 20.473 56.1452
2695 7 66.2182 21.2811 55.2401
2926 6 70.5148 18.8563 56.142
2929 1 69.0841 19.6707 55.2336
2930 2 70.5165 20.4724 56.1537
2933 5 69.0873 21.2807 55.239
2928 8 73.3847 18.8578 56.1534
2931 3 71.953 19.6653 55.2359
2932 4 73.3867 20.4702 56.1527
2935 7 71.9504 21.2786 55.2516
3166 6 76.2465 18.8561 56.1592
3169 1 74.8192 19.6629 55.2414
3170 2 76.2496 20.469 56.1579
3171 3 77.6856 19.6646 55.2596
3173 5 74.8186 21.2802 55.2536
3175 7 77.6878 21.2789 55.2607
3168 8 79.1124 18.8588 56.1705
3172 4 79.1163 20.47 56.1772
3409 1 80.5499 19.6671 55.2664
3413 5 80.551 21.2806 55.2669
3406 6 81.9793 18.8573 56.1827
3410 2 81.9842 20.4751 56.1722
3411 3 83.4205 19.6613 55.268
3415 7 83.4199 21.278 55.2625
3408 8 84.8427 18.864 56.192
3412 4 84.8495 20.4752 56.1826
3649 1 86.2825 19.6669 55.2872
3653 5 86.2826 21.2798 55.2782
3646 6 87.7115 18.8612 56.1993
3648 8 90.5847 18.8581 56.1926
3650 2 87.7157 20.474 56.2028
3651 3 89.1426 19.6657 55.2864
3652 4 90.5811 20.4746 56.1895
3655 7 89.1425 21.2781 55.2853
3886 6 93.445 18.8643 56.184
3889 1 92.0153 19.6692 55.2782
3890 2 93.4501 20.4784 56.1926
3893 5 92.0122 21.284 55.2807
3888 8 96.3102 18.8633 56.191
3891 3 94.8765 19.6687 55.2736
3892 4 96.3095 20.4769 56.1826
3895 7 94.8738 21.2821 55.2782
1976 8 50.4544 22.0896 56.2444
1979 3 49.0221 22.8974 55.327
1980 4 50.447 23.7032 56.2446
1983 7 49.0218 24.5138 55.3302
2217 1 51.8811 22.8961 55.3274
2221 5 51.8822 24.5079 55.3366
2214 6 53.318 22.087 56.2309
2218 2 53.3203 23.7004 56.2388
2219 3 54.7461 22.8991 55.323
2223 7 54.7491 24.512 55.325
2216 8 56.1856 22.0873 56.2209
2220 4 56.1859 23.7014 56.2264
2457 1 57.612 22.8961 55.3028
2461 5 57.6176 24.5092 55.3134
2454 6 59.0505 22.0882 56.2023
2458 2 59.0577 23.7009 56.2042
2459 3 60.4794 22.8942 55.2791
2463 7 60.4825 24.5101 55.2827
2456 8 61.9182 22.0857 56.1818
2460 4 61.9199 23.7007 56.1807
2694 6 64.7859 22.0853 56.1576
2697 1 63.3465 22.8981 55.2578
2698 2 64.7923 23.7023 56.1645
2701 5 63.3522 24.5124 55.2658
2696 8 67.6538 22.0879 56.1491
2699 3 66.2176 22.8985 55.2427
2700 4 67.6542 23.7043 56.1565
2703 7 66.2177 24.511 55.2507
2934 6 70.5167 22.0902 56.1548
2937 1 69.0806 22.8953 55.2384
2938 2 70.5156 23.7045 56.1436
2941 5 69.0843 24.5111 55.2405
2936 8 73.3845 22.0893 56.1553
2939 3 71.9471 22.8937 55.2413
2940 4 73.3749 23.7047 56.157
2943 7 71.9465 24.5089 55.2404
3174 6 76.2492 22.085 56.169
3177 1 74.8113 22.8925 55.2478
3178 2 76.2463 23.6996 56.161
3179 3 77.6858 22.8915 55.261
3181 5 74.8156 24.5073 55.2466
3183 7 77.6799 24.5057 55.2537
3176 8 79.119 22.0865 56.1745
3180 4 79.1153 23.7032 56.1718
3417 1 80.5505 22.8952 55.2622
3421 5 80.5437 24.5078 55.2587
3414 6 81.9863 22.0881 56.1686
3418 2 81.9823 23.7022 56.1724
3419 3 83.415 22.894 55.2531
3423 7 83.4132 24.509 55.2626
3416 8 84.8472 22.0886 56.1769
3420 4 84.8491 23.7029 56.1762
3657 1 86.2822 22.892 55.2652
3661 5 86.2783 24.5059 55.2624
3654 6 87.7109 22.0916 56.1894
3656 8 90.5788 22.087 56.1891
3658 2 87.7117 23.707 56.1769
3659 3 89.1465 22.8941 55.2744
3660 4 90.5792 23.7046 56.1865
3663 7 89.148 24.5074 55.2693
3894 6 93.4437 22.0917 56.1886
3897 1 92.0118 22.8944 55.2796
3898 2 93.4497 23.705 56.187
3901 5 92.0111 24.5071 55.2699
3896 8 96.3099 22.0901 56.1863
3899 3 94.8782 22.8963 55.2756
3900 4 96.3136 23.7042 56.1864
3903 7 94.8783 24.5078 55.2684
1984 8 50.4516 25.3162 56.2458
1987 3 49.0226 26.1267 55.3285
1988 4 50.4541 26.9285 56.2447
1991 7 49.0202 27.7417 55.3327
2225 1 51.8898 26.122 55.3329
2229 5 51.8889 27.7401 55.3399
2222 6 53.3215 25.3176 56.2441
2226 2 53.3223 26.9311 56.2471
2227 3 54.7526 26.123 55.3368
2231 7 54.7552 27.7388 55.3428
2224 8 56.1893 25.3151 56.23
2228 4 56.1901 26.9264 56.2476
2465 1 57.6191 26.1262 55.3156
2469 5 57.6128 27.7394 55.319
2462 6 59.0566 25.3156 56.2126
2466 2 59.0603 26.9312 56.2158
2467 3 60.4835 26.1244 55.2889
2471 7 60.488 27.737 55.2864
2464 8 61.9216 25.3169 56.1844
2468 4 61.9256 26.9285 56.1865
2702 6 64.7885 25.3129 56.1656
2705 1 63.3536 26.1271 55.265
2706 2 64.794 26.9283 56.1781
2709 5 63.356 27.7383 55.2767
2704 8 67.6541 25.3161 56.1642
2707 3 66.2211 26.1229 55.2543
2708 4 67.6548 26.9317 56.1595
2711 7 66.22 27.7425 55.255
2942 6 70.5211 25.3201 56.1538
2945 1 69.0819 26.1274 55.2394
2946 2 70.513 26.9311 56.148
2949 5 69.0851 27.7427 55.2425
2944 8 73.3815 25.3158 56.1458
2947 3 71.9476 26.1235 55.2464
2948 4 73.3832 26.9304 56.1628
2951 7 71.9508 27.7355 55.2518
3182 6 76.2486 25.3164 56.1606
3185 1 74.819 26.1201 55.2454
3186 2 76.2476 26.9297 56.1733
3187 3 77.6835 26.1202 55.2606
3189 5 74.8168 27.7345 55.2475
3191 7 77.6801 27.7327 55.2668
3184 8 79.1135 25.3149 56.1693
3188 4 79.1203 26.9269 56.1703
3425 1 80.5462 26.1247 55.2545
3429 5 80.5419 27.7393 55.2579
3422 6 81.978 25.318 56.1686
3426 2 81.9802 26.9317 56.1616
3427 3 83.4151 26.125 55.2606
3431 7 83.4127 27.738 55.2507
3424 8 84.8484 25.3179 56.1742
3428 4 84.8437 26.9303 56.1691
3665 1 86.2844 26.1208 55.2645
3669 5 86.2812 27.7353 55.2644
3662 6 87.714 25.3163 56.1771
3664 8 90.5783 25.3179 56.1789
3666 2 87.716 26.9318 56.1803
3667 3 89.1482 26.1242 55.2652
3668 4 90.5787 26.9307 56.1713
3671 7 89.1471 27.737 55.2557
3902 6 93.4481 25.3177 56.1845
3905 1 92.0162 26.1172 55.2647
3906 2 93.4465 26.9296 56.1817
3909 5 92.0138 27.7312 55.2717
3904 8 96.3121 25.3187 56.1846
3907 3 94.8776 26.1226 55.2668
3908 4 96.3164 26.9314 56.1758
3911 7 94.8843 27.7345 55.2728
1992 8 50.4546 28.5444 56.2452
1995 3 49.0206 29.3564 55.3425
1996 4 50.4532 30.1558 56.2583
1999 7 49.0248 30.9694 55.3412
2233 1 51.8882 29.3545 55.343
2237 5 51.89 30.9677 55.3573
2230 6 53.3212 28.5466 56.2553
2234 2 53.3249 30.1605 56.2571
2235 3 54.7538 29.3511 55.3396
2239 7 54.7583 30.9652 55.3424
2232 8 56.1905 28.5405 56.2523
2236 4 56.1918 30.1566 56.2452
2473 1 57.6215 29.3517 55.3332
2477 5 57.6172 30.9631 55.3249
2470 6 59.0649 28.5458 56.2144
2474 2 59.0649 30.1589 56.2221
2475 3 60.4858 29.3512 55.2924
2479 7 60.4858 30.9646 55.3014
2472 8 61.9233 28.5426 56.1963
2476 4 61.9247 30.1575 56.2016
2710 6 64.7933 28.5418 56.1793
2713 1 63.3476 29.3522 55.2756
2714 2 64.7859 30.1585 56.18
2717 5 63.3447 30.9665 55.2809
2712 8 67.6573 28.5469 56.1691
2715 3 66.2139 29.3553 55.2667
2716 4 67.651 30.1573 56.1825
2719 7 66.215 30.9699 55.2707
2950 6 70.5234 28.5418 56.1597
2953 1 69.0802 29.3555 55.2601
2954 2 70.5194 30.1566 56.1693
2957 5 69.0816 30.9673 55.2713
2952 8 73.383 28.54 56.1542
2955 3 71.9521 29.3502 55.2574
2956 4 73.379 30.1543 56.1634
2959 7 71.9456 30.9663 55.2578
3190 6 76.2452 28.5445 56.1698
3193 1 74.8197 29.3485 55.2624
3194 2 76.2463 30.1582 56.1753
3195 3 77.6796 29.3491 55.2631
3197 5 74.8134 30.9623 55.2584
3199 7 77.6757 30.9609 55.2661
3192 8 79.1149 28.5413 56.175
3196 4 79.1152 30.153 56.1676
3433 1 80.5472 29.3535 55.2561
3437 5 80.5459 30.9657 55.2571
3430 6 81.9813 28.5444 56.1633
3434 2 81.9812 30.1568 56.1691
3435 3 83.4119 29.3479 55.2549
3439 7 83.4174 30.9621 55.2614
3432 8 84.8435 28.5439 56.1743
3436 4 84.8422 30.1571 56.1795
3673 1 86.2779 29.352 55.2611
3677 5 86.2799 30.9657 55.2715
3670 6 87.7116 28.5436 56.172
3672 8 90.5774 28.5418 56.1708
3674 2 87.7108 30.1553 56.174
3675 3 89.1444 29.3485 55.261
3676 4 90.5774 30.1551 56.1791
3679 7 89.1489 30.9637 55.2677
3910 6 93.4489 28.5411 56.1773
3913 1 92.0144 29.3463 55.2692
3914 2 93.4433 30.1542 56.1765
3917 5 92.0128 30.9606 55.2746
3912 8 96.3132 28.5407 56.185
3915 3 94.8783 29.347 55.2636
3916 4 96.3095 30.1539 56.189
3919 7 94.877 30.9626 55.2693
2000 8 50.4552 31.7744 56.2643
2003 3 49.023 32.5817 55.3507
2004 4 50.4562 33.3862 56.2658
2007 7 49.0185 34.1935 55.3585
2241 1 51.8859 32.5786 55.3456
2245 5 51.8827 34.1909 55.3487
2238 6 53.3238 31.7779 56.2569
2242 2 53.3171 33.3897 56.2567
2243 3 54.7547 32.5793 55.3456
2247 7 54.7497 34.1919 55.3446
2240 8 56.1906 31.7706 56.2465
2244 4 56.1937 33.3856 56.2411
2481 1 57.6151 32.5785 55.3211
2485 5 57.6236 34.1918 55.315
2478 6 59.0625 31.7741 56.2156
2482 2 59.0623 33.3866 56.2164
2483 3 60.4879 32.5803 55.2942
2487 7 60.4829 34.1922 55.2907
2480 8 61.9237 31.7711 56.1992
2484 4 61.923 33.3856 56.1962
2718 6 64.7847 31.7737 56.1834
2721 1 63.3502 32.5795 55.274
2722 2 64.782 33.3871 56.1846
2725 5 63.3503 34.1945 55.2722
2720 8 67.6497 31.7713 56.1895
2723 3 66.2206 32.5818 55.2753
2724 4 67.6524 33.3869 56.193
2727 7 66.2171 34.1935 55.2771
2958 6 70.5173 31.7686 56.1748
2961 1 69.0812 32.5786 55.2738
2962 2 70.5187 33.3809 56.1812
2965 5 69.0856 34.1885 55.2744
2960 8 73.3824 31.7631 56.1679
2963 3 71.9491 32.5774 55.2646
2964 4 73.3865 33.3796 56.1728
2967 7 71.9498 34.1913 55.2709
3198 6 76.2467 31.7704 56.1682
3201 1 74.8173 32.5754 55.2539
3202 2 76.2489 33.386 56.1628
3203 3 77.6881 32.576 55.2492
3205 5 74.8202 34.1884 55.2603
3207 7 77.6825 34.193 55.2519
3200 8 79.1186 31.7697 56.1678
3204 4 79.1159 33.382 56.1667
3441 1 80.5465 32.5771 55.2533
3445 5 80.5452 34.1923 55.2531
3438 6 81.9753 31.7726 56.1672
3442 2 81.9792 33.3862 56.1648
3443 3 83.4168 32.5763 55.2632
3447 7 83.4136 34.1909 55.2644
3440 8 84.8493 31.7703 56.1804
3444 4 84.8441 33.3801 56.1778
3681 1 86.2828 32.5802 55.2722
3685 5 86.2806 34.194 55.2749
3678 6 87.7172 31.7687 56.1801
3680 8 90.5796 31.7681 56.1814
3682 2 87.7121 33.3852 56.1823
3683 3 89.1451 32.5796 55.2747
3684 4 90.5819 33.382 56.188
3687 7 89.1451 34.1905 55.2755
3918 6 93.4462 31.7698 56.1837
3921 1 92.0127 32.5768 55.2736
3922 2 93.443 33.3835 56.1872
3925 5 92.0133 34.1914 55.2761
3920 8 96.3112 31.7715 56.1848
3923 3 94.8829 32.5786 55.275
3924 4 96.3153 33.3887 56.1898
3927 7 94.8775 34.1917 55.2766
2008 8 50.4542 35.0036 56.2611
2011 3 49.0229 35.8096 55.3618
2012 4 50.461 36.6157 56.2582
2015 7 49.0194 37.4236 55.3554
2249 1 51.8855 35.8071 55.3374
2253 5 51.8864 37.4225 55.3376
2246 6 53.3189 35.0049 56.2536
2250 2 53.3219 36.6156 56.2452
2251 3 54.7567 35.8058 55.3291
2255 7 54.7533 37.4207 55.3306
2248 8 56.1936 34.9951 56.2369
2252 4 56.1889 36.609 56.2372
2489 1 57.6185 35.8031 55.3107
2493 5 57.6143 37.4149 55.3187
2486 6 59.0562 34.9979 56.2187
2490 2 59.0527 36.6116 56.2214
2491 3 60.4798 35.8061 55.2989
2495 7 60.479 37.4186 55.2959
2488 8 61.9159 34.9996 56.1938
2492 4 61.9141 36.6134 56.1964
2726 6 64.7825 34.9955 56.1872
2729 1 63.3464 35.809 55.2819
2730 2 64.7851 36.6093 56.1983
2733 5 63.3476 37.4176 55.2858
2728 8 67.6543 35.0008 56.1906
2731 3 66.2201 35.8059 55.2804
2732 4 67.6532 36.6128 56.1855
2735 7 66.2152 37.4202 55.2839
2966 6 70.5168 34.9986 56.1856
2969 1 69.079 35.8025 55.2685
2970 2 70.5108 36.6112 56.1859
2973 5 69.0851 37.4137 55.2647
2968 8 73.3823 34.9921 56.179
2971 3 71.9542 35.8044 55.276
2972 4 73.3904 36.6103 56.1812
2975 7 71.953 37.4156 55.2766
3206 6 76.2482 34.9995 56.1664
3209 1 74.8175 35.8026 55.2661
3210 2 76.2516 36.614 56.1634
3211 3 77.6804 35.8078 55.2448
3213 5 74.811 37.4182 55.2638
3215 7 77.6832 37.4198 55.2454
3208 8 79.112 34.9978 56.1575
3212 4 79.1122 36.6129 56.1627
3449 1 80.5492 35.8097 55.2624
3453 5 80.5528 37.4195 55.2558
3446 6 81.9782 34.9971 56.1721
3450 2 81.9837 36.6102 56.1619
3451 3 83.4196 35.8028 55.2599
3455 7 83.4161 37.4182 55.2554
3448 8 84.8504 34.9987 56.1763
3452 4 84.8441 36.6146 56.1776
3689 1 86.2847 35.8064 55.2738
3693 5 86.2836 37.4216 55.2674
3686 6 87.7163 34.9976 56.1844
3688 8 90.5807 34.9979 56.1832
3690 2 87.715 36.6169 56.1844
3691 3 89.1477 35.8046 55.2734
3692 4 90.5814 36.6134 56.1913
3695 7 89.149 37.4197 55.2722
3926 6 93.4468 34.9961 56.1961
3929 1 92.0123 35.8059 55.2795
3930 2 93.4475 36.6106 56.1847
3933 5 92.0097 37.4205 55.2826
3928 8 96.3118 35.0032 56.1812
3931 3 94.878 35.8064 55.2695
3932 4 96.3081 36.6165 56.1838
3935 7 94.8722 37.4224 55.2721
2016 8 50.4589 38.2304 56.2601
2019 3 49.0258 39.0352 55.36
2020 4 50.4578 39.8476 56.2581
2257 1 51.8887 39.0344 55.3505
2254 6 53.3223 38.2277 56.2538
2258 2 53.3262 39.8402 56.251
2259 3 54.7471 39.0351 55.328
2256 8 56.1894 38.2272 56.2359
2260 4 56.184 39.843 56.2328
2497 1 57.6149 39.0326 55.3219
2494 6 59.0519 38.2259 56.2242
2498 2 59.0532 39.8431 56.2195
2499 3 60.482 39.0324 55.3018
2496 8 61.9163 38.2276 56.1946
2500 4 61.9203 39.8421 56.2063
2734 6 64.7842 38.2265 56.1934
2737 1 63.3539 39.0327 55.2821
2738 2 64.7818 39.8418 56.1967
2736 8 67.6549 38.2249 56.1818
2739 3 66.219 39.0347 55.2788
2740 4 67.6539 39.8375 56.1914
2974 6 70.5136 38.2238 56.1817
2977 1 69.0836 39.0287 55.2661
2978 2 70.5168 39.8389 56.177
2976 8 73.3825 38.2255 56.1786
2979 3 71.9499 39.0341 55.2632
2980 4 73.3868 39.8342 56.1687
3214 6 76.2502 38.2267 56.1595
3217 1 74.8132 39.0295 55.2629
3218 2 76.2511 39.8392 56.1692
3219 3 77.6808 39.0351 55.2557
3216 8 79.1118 38.2253 56.1711
3220 4 79.1154 39.8409 56.1792
3457 1 80.5454 39.0331 55.2591
3454 6 81.9862 38.2266 56.1608
3458 2 81.9789 39.8403 56.1691
3459 3 83.4168 39.032 55.2534
3456 8 84.8481 38.2313 56.1656
3460 4 84.8433 39.8447 56.168
3697 1 86.2798 39.0388 55.2621
3694 6 87.7149 38.2326 56.1761
3696 8 90.5804 38.2275 56.195
3698 2 87.7101 39.8442 56.1791
3699 3 89.1499 39.0368 55.2814
3700 4 90.5754 39.8444 56.1996
3934 6 93.4493 38.2299 56.1867
3937 1 92.0098 39.0373 55.2927
3938 2 93.4464 39.8438 56.1893
3936 8 96.3097 38.2338 56.1876
3939 3 94.8802 39.0388 55.2739
3940 4 96.3107 39.8454 56.1858
2023 7 49.0216 40.647 55.35
2024 8 50.4587 41.4617 56.2471
2027 3 49.0236 42.2615 55.3453
2028 4 50.457 43.0717 56.2524
2261 5 51.8895 40.6481 55.3448
2265 1 51.8902 42.2641 55.3358
2262 6 53.3187 41.4567 56.2433
2263 7 54.7513 40.6533 55.3331
2266 2 53.3253 43.0709 56.248
2267 3 54.7541 42.2669 55.3304
2264 8 56.1901 41.4555 56.2364
2268 4 56.1889 43.0699 56.2416
2501 5 57.6167 40.6507 55.3196
2505 1 57.6142 42.2623 55.3166
2502 6 59.0552 41.4552 56.2202
2503 7 60.4821 40.6492 55.3024
2506 2 59.0552 43.0686 56.2114
2507 3 60.4815 42.2622 55.2952
2504 8 61.9166 41.4547 56.2012
2508 4 61.9177 43.067 56.2072
2741 5 63.3489 40.6487 55.2859
2742 6 64.7855 41.4534 56.1927
2745 1 63.3476 42.2645 55.2895
2746 2 64.7833 43.0644 56.1957
2743 7 66.2155 40.6496 55.2815
2744 8 67.651 41.4531 56.1898
2747 3 66.2163 42.2612 55.2825
2748 4 67.6537 43.0706 56.182
2981 5 69.0778 40.6457 55.2661
2982 6 70.5142 41.4531 56.1741
2985 1 69.0791 42.2598 55.2659
2986 2 70.5076 43.068 56.181
2983 7 71.9521 40.6463 55.2674
2984 8 73.383 41.4519 56.1729
2987 3 71.9472 42.2609 55.2705
2988 4 73.3793 43.0658 56.1706
3221 5 74.8141 40.6454 55.2598
3222 6 76.2469 41.4547 56.1627
3223 7 77.681 40.6512 55.2571
3225 1 74.8054 42.2565 55.2585
3226 2 76.2411 43.0661 56.1612
3227 3 77.6733 42.2637 55.2547
3224 8 79.1075 41.4571 56.1686
3228 4 79.1067 43.0678 56.1639
3461 5 80.5435 40.6449 55.2661
3465 1 80.545 42.2608 55.2613
3462 6 81.981 41.454 56.175
3463 7 83.4109 40.647 55.2544
3466 2 81.9788 43.068 56.1795
3467 3 83.4153 42.2642 55.2653
3464 8 84.8463 41.4565 56.1742
3468 4 84.8487 43.0691 56.189
3701 5 86.2823 40.6491 55.2582
3705 1 86.2776 42.2629 55.2654
3702 6 87.7112 41.4566 56.1812
3703 7 89.1519 40.6519 55.2766
3704 8 90.574 41.4586 56.1926
3706 2 87.7106 43.07 56.1822
3707 3 89.1488 42.2667 55.2767
3708 4 90.5738 43.0718 56.1925
3941 5 92.008 40.6517 55.2873
3942 6 93.4441 41.4569 56.1941
3945 1 92.0072 42.265 55.29
3946 2 93.4423 43.0701 56.1956
3943 7 94.8775 40.6534 55.2748
3944 8 96.3129 41.4617 56.1823
3947 3 94.875 42.2664 55.282
3948 4 96.3097 43.0753 56.1832
2031 7 49.0243 43.8727 55.3334
2032 8 50.4544 44.6868 56.2467
2035 3 49.0204 45.4894 55.3314
2036 4 50.456 46.3022 56.2308
2269 5 51.89 43.8752 55.3365
2273 1 51.8894 45.4907 55.3282
2270 6 53.3215 44.6847 56.248
2271 7 54.7567 43.8778 55.3379
2274 2 53.3211 46.3016 56.2416
2275 3 54.7518 45.4915 55.3299
2272 8 56.1915 44.6828 56.2419
2276 4 56.1933 46.297 56.2413
2509 5 57.6158 43.8794 55.3192
2513 1 57.6121 45.4922 55.3187
2510 6 59.0555 44.6852 56.218
2511 7 60.483 43.8757 55.2985
2514 2 59.056 46.2989 56.2199
2515 3 60.4826 45.4932 55.2941
2512 8 61.9192 44.6848 56.1956
2516 4 61.919 46.299 56.2057
2749 5 63.3487 43.8766 55.2891
2750 6 64.7872 44.6825 56.1978
2753 1 63.352 45.4903 55.2845
2754 2 64.7865 46.2988 56.1879
2751 7 66.2155 43.8735 55.2811
2752 8 67.6527 44.682 56.178
2755 3 66.2103 45.4884 55.2808
2756 4 67.6476 46.295 56.1797
2989 5 69.0788 43.8744 55.2539
2990 6 70.5114 44.6826 56.1754
2993 1 69.0777 45.4882 55.2648
2994 2 70.5148 46.2977 56.168
2991 7 71.9434 43.8741 55.266
2992 8 73.3762 44.6824 56.1622
2995 3 71.9384 45.4865 55.2529
2996 4 73.3755 46.2933 56.1609
3229 5 74.808 43.8715 55.2508
3230 6 76.2398 44.6774 56.1669
3231 7 77.6761 43.8731 55.2635
3233 1 74.8128 45.4898 55.2542
3234 2 76.2437 46.2922 56.1648
3235 3 77.6801 45.4871 55.2646
3232 8 79.1074 44.6802 56.1768
3236 4 79.1125 46.2946 56.1781
3469 5 80.5426 43.8728 55.2691
3473 1 80.5438 45.4899 55.2765
3470 6 81.9795 44.6818 56.1771
3471 7 83.4152 43.8758 55.265
3474 2 81.9791 46.2944 56.1872
3475 3 83.4137 45.4913 55.2711
3472 8 84.841 44.6834 56.1896
3476 4 84.845 46.2964 56.1862
3709 5 86.2763 43.8775 55.2722
3713 1 86.2744 45.4912 55.2758
3710 6 87.7092 44.6839 56.1806
3711 7 89.1454 43.8802 55.2799
3712 8 90.5756 44.686 56.1879
3714 2 87.7098 46.2989 56.1801
3715 3 89.1433 45.493 55.2756
3716 4 90.5781 46.2974 56.1909
3949 5 92.0133 43.8784 55.2826
3950 6 93.4483 44.687 56.197
3953 1 92.0135 45.4919 55.2835
3954 2 93.4433 46.3028 56.1881
3951 7 94.8735 43.878 55.2731
3952 8 96.3128 44.6901 56.1823
3955 3 94.8761 45.4933 55.2775
3956 4 96.3071 46.3034 56.1812
2039 7 49.0184 47.1035 55.3232
2040 8 50.4564 47.9152 56.2336
2043 3 49.0211 48.7203 55.3218
2044 4 50.4527 49.5295 56.2351
2277 5 51.8924 47.1056 55.3245
2281 1 51.8861 48.7215 55.3288
2278 6 53.3223 47.9153 56.2354
2279 7 54.7563 47.1043 55.3352
2282 2 53.3236 49.5252 56.2313
2283 3 54.7577 48.7189 55.3244
2280 8 56.1911 47.913 56.2378
2284 4 56.1859 49.5287 56.2355
2517 5 57.618 47.1049 55.3193
2521 1 57.6213 48.7173 55.32
2518 6 59.0564 47.912 56.2251
2519 7 60.4821 47.1062 55.3014
2522 2 59.0605 49.527 56.2171
2523 3 60.4831 48.7183 55.2951
2520 8 61.9192 47.9092 56.1994
2524 4 61.9189 49.525 56.1966
2757 5 63.3501 47.1022 55.2852
2758 6 64.7819 47.9136 56.1842
2761 1 63.3489 48.7162 55.2779
2762 2 64.7849 49.526 56.1812
2759 7 66.2147 47.104 55.2642
2760 8 67.6461 47.9071 56.1765
2763 3 66.22 48.716 55.276
2764 4 67.6526 49.5216 56.1864
2997 5 69.0793 47.1011 55.2661
2998 6 70.5145 47.9102 56.1726
3001 1 69.079 48.7182 55.2644
3002 2 70.5138 49.5232 56.1818
2999 7 71.9426 47.1035 55.2533
3000 8 73.3799 47.9046 56.1672
3003 3 71.9464 48.7184 55.2593
3004 4 73.3809 49.5185 56.1711
3237 5 74.8152 47.105 55.2524
3238 6 76.2443 47.9077 56.1744
3239 7 77.6823 47.1014 55.2659
3241 1 74.812 48.7193 55.255
3242 2 76.2416 49.5197 56.1768
3243 3 77.6818 48.7164 55.2695
3240 8 79.1125 47.9063 56.1841
3244 4 79.1126 49.5214 56.1869
3477 5 80.5519 47.104 55.28
3481 1 80.551 48.7161 55.2784
3478 6 81.9845 47.9103 56.1924
3479 7 83.413 47.1059 55.2737
3482 2 81.9852 49.5264 56.193
3483 3 83.4147 48.7182 55.2781
3480 8 84.8489 47.9127 56.1888
3484 4 84.8472 49.5251 56.1874
3717 5 86.2771 47.1062 55.2689
3721 1 86.2796 48.7188 55.2721
3718 6 87.7169 47.9099 56.1768
3719 7 89.1477 47.1052 55.2684
3720 8 90.5769 47.9106 56.186
3722 2 87.7142 49.5254 56.1838
3723 3 89.1463 48.7207 55.2722
3724 4 90.5769 49.5223 56.1848
3957 5 92.0122 47.1063 55.2805
3958 6 93.4475 47.9173 56.1874
3961 1 92.0129 48.7176 55.2772
3962 2 93.4473 49.53 56.1841
3959 7 94.8753 47.1094 55.2709
3960 8 96.3099 47.9183 56.1888
3963 3 94.8775 48.723 55.2745
3964 4 96.3104 49.5329 56.1833
2047 7 49.024 50.3346 55.3179
2048 8 50.453 51.1422 56.2419
2051 3 49.02 51.9471 55.3145
2052 4 50.4546 52.7557 56.2288
2285 5 51.8888 50.331 55.3328
2289 1 51.8885 51.9431 55.3291
2286 6 53.3246 51.1376 56.2388
2287 7 54.7511 50.3315 55.3239
2290 2 53.3224 52.753 56.2348
2291 3 54.7521 51.9467 55.3166
2288 8 56.1905 51.1426 56.2272
2292 4 56.1917 52.7573 56.2185
2525 5 57.622 50.3324 55.3122
2529 1 57.6202 51.9484 55.3028
2526 6 59.059 51.1408 56.2078
2527 7 60.4844 50.3324 55.2945
2530 2 59.0552 52.7539 56.2098
2531 3 60.4856 51.9476 55.296
2528 8 61.9258 51.1398 56.1973
2532 4 61.9247 52.7523 56.1966
2765 5 63.3491 50.3307 55.2739
2766 6 64.7869 51.139 56.1879
2769 1 63.3533 51.9445 55.2818
2770 2 64.7869 52.7537 56.1964
2767 7 66.2207 50.3313 55.2741
2768 8 67.6509 51.1371 56.1873
2771 3 66.2245 51.9449 55.2811
2772 4 67.6543 52.749 56.1786
3005 5 69.0818 50.3336 55.2684
3006 6 70.5142 51.1426 56.1714
3009 1 69.0819 51.9446 55.2578
3010 2 70.5182 52.7553 56.1666
3007 7 71.9476 50.3311 55.2714
3008 8 73.384 51.1313 56.1809
3011 3 71.9511 51.9392 55.2692
3012 4 73.3811 52.7492 56.1686
3245 5 74.8178 50.3289 55.2635
3246 6 76.2421 51.1335 56.1838
3247 7 77.6804 50.3285 55.276
3249 1 74.8084 51.9453 55.2664
3250 2 76.2493 52.7509 56.1856
3251 3 77.6808 51.9441 55.2794
3248 8 79.1088 51.1364 56.1969
3252 4 79.1141 52.7518 56.2003
3485 5 80.549 50.3313 55.2878
3489 1 80.5444 51.9436 55.2881
3486 6 81.9773 51.1394 56.194
3487 7 83.4121 50.3349 55.2754
3490 2 81.9796 52.7502 56.1974
3491 3 83.4109 51.947 55.2764
3488 8 84.8464 51.1365 56.1855
3492 4 84.8446 52.7526 56.1853
3725 5 86.2812 50.3307 55.2692
3729 1 86.2778 51.9436 55.2785
3726 6 87.7148 51.1401 56.1897
3727 7 89.1489 50.3347 55.279
3728 8 90.5782 51.1398 56.1843
3730 2 87.7139 52.7523 56.2002
3731 3 89.1449 51.9492 55.2804
3732 4 90.5803 52.7556 56.1964
3965 5 92.0126 50.3347 55.2747
3966 6 93.4448 51.1423 56.1892
3969 1 92.0136 51.9496 55.2827
3970 2 93.4415 52.7585 56.1872
3967 7 94.8756 50.3372 55.2775
3968 8 96.3065 51.141 56.1864
3971 3 94.8724 51.945 55.2675
3972 4 96.304 52.7547 56.1795
2055 7 49.0233 53.5603 55.3188
2056 8 50.4559 54.3657 56.2328
2059 3 49.0231 55.1751 55.3248
2060 4 50.4576 55.9792 56.2363
2293 5 51.8912 53.5578 55.3207
2297 1 51.8887 55.1703 55.3196
2294 6 53.3247 54.3664 56.2208
2295 7 54.7548 53.5628 55.3138
2298 2 53.3224 55.9798 56.2332
2299 3 54.7574 55.1788 55.309
2296 8 56.1937 54.3687 56.2151
2300 4 56.1909 55.9816 56.2208
2533 5 57.6236 53.5655 55.3018
2537 1 57.6186 55.1772 55.2978
2534 6 59.0583 54.366 56.2044
2535 7 60.4885 53.5599 55.2908
2538 2 59.0563 55.9818 56.1978
2539 3 60.4901 55.1723 55.2815
2536 8 61.9223 54.3678 56.1976
2540 4 61.9237 55.9796 56.1927
2773 5 63.3497 53.5594 55.2815
2774 6 64.7901 54.3673 56.1854
2777 1 63.3523 55.1729 55.2803
2778 2 64.7852 55.9805 56.1861
2775 7 66.2195 53.5566 55.2765
2776 8 67.6587 54.3661 56.1757
2779 3 66.2179 55.1718 55.2719
2780 4 67.6556 55.982 56.1741
3013 5 69.0827 53.5598 55.2516
3014 6 70.5205 54.3691 56.1597
3017 1 69.0799 55.1738 55.2535
3018 2 70.5155 55.9823 56.1584
3015 7 71.951 53.5545 55.2548
3016 8 73.3828 54.3683 56.173
3019 3 71.9533 55.1708 55.2488
3020 4 73.3806 55.9828 56.1646
3253 5 74.8179 53.5599 55.2656
3254 6 76.248 54.363 56.1874
3255 7 77.6819 53.5569 55.2824
3257 1 74.8158 55.1724 55.2715
3258 2 76.2452 55.9765 56.1871
3259 3 77.6846 55.1708 55.2788
3256 8 79.1146 54.3677 56.1955
3260 4 79.1136 55.981 56.1959
3493 5 80.5426 53.5601 55.2858
3497 1 80.5459 55.1751 55.2797
3494 6 81.9803 54.3675 56.1935
3495 7 83.4128 53.5619 55.2716
3498 2 81.9804 55.983 56.1809
3499 3 83.4129 55.1768 55.2777
3496 8 84.8459 54.3663 56.1842
3500 4 84.8485 55.981 56.1795
3733 5 86.2811 53.5601 55.2727
3737 1 86.2847 55.1732 55.2751
3734 6 87.7127 54.3699 56.1968
3735 7 89.148 53.5631 55.2876
3736 8 90.5776 54.3716 56.1978
3738 2 87.712 55.984 56.2025
3739 3 89.1436 55.1763 55.2831
3740 4 90.5803 55.984 56.1899
3973 5 92.0052 53.5673 55.2814
3974 6 93.4405 54.3709 56.1851
3977 1 92.0082 55.179 55.2799
3978 2 93.4423 55.9854 56.1916
3975 7 94.8692 53.5597 55.2699
3976 8 96.3027 54.3662 56.1778
3979 3 94.8725 55.1763 55.279
3980 4 96.304 55.9817 56.1801
2063 7 49.0198 56.7873 55.3232
2064 8 50.4521 57.5935 56.2316
2067 3 49.0212 58.4024 55.3216
2068 4 50.4604 59.2078 56.2317
2301 5 51.8839 56.7834 55.3236
2305 1 51.8832 58.398 55.3151
2302 6 53.3205 57.5957 56.2221
2303 7 54.7554 56.7893 55.3141
2306 2 53.3173 59.2078 56.2215
2307 3 54.7481 58.4034 55.3007
2304 8 56.1883 57.5977 56.2139
2308 4 56.185 59.2089 56.2103
2541 5 57.6164 56.7882 55.3016
2545 1 57.6145 58.4031 55.2966
2542 6 59.0618 57.5962 56.2054
2543 7 60.4861 56.7884 55.2811
2546 2 59.0558 59.213 56.1999
2547 3 60.4849 58.404 55.2831
2544 8 61.9219 57.5936 56.1826
2548 4 61.9193 59.2056 56.193
2781 5 63.3553 56.7867 55.2743
2782 6 64.7844 57.592 56.189
2785 1 63.3489 58.3982 55.28
2786 2 64.786 59.2042 56.1856
2783 7 66.2139 56.7849 55.2728
2784 8 67.6526 57.5918 56.1673
2787 3 66.216 58.3978 55.2714
2788 4 67.6524 59.2058 56.1653
3021 5 69.0844 56.7886 55.2482
3022 6 70.5135 57.5971 56.1619
3025 1 69.0808 58.4028 55.2505
3026 2 70.5133 59.2089 56.1631
3023 7 71.9531 56.7846 55.2448
3024 8 73.3806 57.5952 56.1581
3027 3 71.9489 58.4004 55.2507
3028 4 73.3841 59.2072 56.1596
3261 5 74.8177 56.7842 55.2587
3262 6 76.2435 57.5921 56.1815
3263 7 77.6815 56.7823 55.2842
3265 1 74.8195 58.3993 55.2566
3266 2 76.2482 59.2076 56.1693
3267 3 77.6815 58.3968 55.2697
3264 8 79.1112 57.5983 56.1833
3268 4 79.1166 59.2109 56.1788
3501 5 80.5434 56.7898 55.2712
3505 1 80.5487 58.405 55.2766
3502 6 81.9806 57.5945 56.185
3503 7 83.4166 56.7884 55.2721
3506 2 81.9809 59.2128 56.1857
3507 3 83.4169 58.402 55.2807
3504 8 84.8495 57.5933 56.1935
3508 4 84.8465 59.2098 56.192
3741 5 86.2836 56.7892 55.2785
3745 1 86.2876 58.4048 55.2843
3742 6 87.7154 57.5995 56.1939
3743 7 89.1475 56.7914 55.2905
3744 8 90.5817 57.5951 56.2012
3746 2 87.7186 59.2122 56.203
3747 3 89.1521 58.4072 55.2862
3748 4 90.5881 59.2108 56.202
3981 5 92.009 56.7931 55.2866
3982 6 93.4429 57.5979 56.1944
3985 1 92.0148 58.4083 55.2857
3986 2 93.4488 59.2138 56.1885
3983 7 94.876 56.7898 55.2705
3984 8 96.3106 57.5948 56.1871
3987 3 94.8754 58.4046 55.2731
3988 4 96.3109 59.2067 56.1922
2071 7 49.0208 60.0129 55.3203
2072 8 50.4577 60.8206 56.2273
2075 3 49.028 61.6287 55.3207
2076 4 50.4578 62.4359 56.2346
2309 5 51.8853 60.0136 55.3055
2313 1 51.8873 61.6304 55.3219
2310 6 53.3157 60.82 56.2192
2311 7 54.7482 60.0158 55.3057
2314 2 53.3272 62.4354 56.2265
2315 3 54.7534 61.6301 55.3149
2312 8 56.186 60.8223 56.219
2316 4 56.1923 62.4398 56.2223
2549 5 57.6121 60.0159 55.2967
2553 1 57.612 61.6305 55.3067
2550 6 59.0575 60.8243 56.2046
2551 7 60.4859 60.02 55.2861
2554 2 59.056 62.4383 56.2092
2555 3 60.4817 61.6303 55.2889
2552 8 61.918 60.821 56.1961
2556 4 61.9172 62.4367 56.1953
2789 5 63.3523 60.0164 55.2828
2790 6 64.7902 60.8204 56.191
2793 1 63.347 61.6283 55.2818
2794 2 64.7879 62.4355 56.1799
2791 7 66.2151 60.0162 55.2682
2792 8 67.6533 60.8223 56.1654
2795 3 66.2136 61.6274 55.2635
2796 4 67.6483 62.4382 56.1749
3029 5 69.0836 60.018 55.2534
3030 6 70.5151 60.8223 56.1649
3033 1 69.083 61.6331 55.2551
3034 2 70.5176 62.4363 56.1716
3031 7 71.949 60.0145 55.2555
3032 8 73.3845 60.8216 56.1684
3035 3 71.9534 61.6276 55.2606
3036 4 73.3881 62.4377 56.1776
3269 5 74.8168 60.0136 55.2468
3270 6 76.2479 60.8187 56.1648
3271 7 77.6879 60.0101 55.263
3273 1 74.8176 61.6275 55.2471
3274 2 76.2508 62.4307 56.1678
3275 3 77.6852 61.6293 55.2618
3272 8 79.1149 60.8268 56.1766
3276 4 79.1143 62.4412 56.1733
3509 5 80.5485 60.0177 55.2706
3513 1 80.5493 61.6297 55.2677
3510 6 81.9859 60.8251 56.1808
3511 7 83.417 60.0147 55.2803
3514 2 81.9794 62.4387 56.1866
3515 3 83.4172 61.6282 55.2759
3512 8 84.8432 60.824 56.1926
3516 4 84.8453 62.4353 56.1893
3749 5 86.2875 60.0173 55.2817
3753 1 86.2825 61.6302 55.2899
3750 6 87.7146 60.8246 56.2021
3751 7 89.1553 60.0173 55.2916
3752 8 90.58 60.8256 56.208
3754 2 87.7142 62.4359 56.2063
3755 3 89.1503 61.6319 55.2929
3756 4 90.5797 62.4415 56.2091
3989 5 92.0134 60.0206 55.2861
3990 6 93.4498 60.8259 56.1969
3993 1 92.0116 61.6329 55.2951
3994 2 93.4505 62.4388 56.2028
3991 7 94.8816 60.0167 55.286
3992 8 96.3084 60.8227 56.206
3995 3 94.8781 61.6303 55.2867
3996 4 96.3081 62.4349 56.1904
2079 7 49.0212 63.2448 55.3306
2080 8 50.4563 64.0487 56.2453
2083 3 49.0197 64.8597 55.3404
2317 5 51.89 63.2434 55.3213
2321 1 51.8846 64.8556 55.3256
2318 6 53.3232 64.0509 56.2314
2319 7 54.7547 63.2456 55.3198
2323 3 54.7494 64.8601 55.3123
2320 8 56.1939 64.0532 56.2195
2557 5 57.6172 63.2406 55.3033
2561 1 57.6174 64.8587 55.2955
2558 6 59.0543 64.0514 56.1982
2559 7 60.4815 63.2441 55.2826
2563 3 60.484 64.8557 55.2885
2560 8 61.9176 64.0499 56.1969
2797 5 63.345 63.2407 55.2779
2798 6 64.7837 64.0506 56.1777
2801 1 63.3465 64.854 55.2699
2799 7 66.2148 63.2431 55.2684
2800 8 67.6477 64.0506 56.1791
2803 3 66.2164 64.8545 55.2667
3037 5 69.083 63.2462 55.266
3038 6 70.5173 64.0484 56.1835
3041 1 69.0842 64.8592 55.2698
3039 7 71.9536 63.2474 55.2659
3040 8 73.3857 64.0532 56.1744
3043 3 71.9525 64.8595 55.2685
3277 5 74.8189 63.2474 55.2668
3278 6 76.2506 64.0474 56.1779
3279 7 77.6849 63.2454 55.2614
3281 1 74.8214 64.863 55.2666
3283 3 77.6807 64.8613 55.2654
3280 8 79.1211 64.0523 56.1776
3517 5 80.5509 63.2465 55.2557
3521 1 80.5498 64.8596 55.2593
3518 6 81.9786 64.0515 56.175
3519 7 83.415 63.2423 55.2767
3523 3 83.4183 64.8577 55.2689
3520 8 84.8461 64.0526 56.1936
3757 5 86.2828 63.2433 55.2963
3761 1 86.2785 64.8544 55.2915
3758 6 87.7119 64.0499 56.199
3759 7 89.1434 63.2471 55.2877
3760 8 90.5775 64.0521 56.203
3763 3 89.1427 64.8594 55.3
3997 5 92.0099 63.2452 55.296
3998 6 93.4431 64.0551 56.1952
4001 1 92.013 64.8603 55.2907
3999 7 94.8733 63.2449 55.2746
4000 8 96.31 64.0485 56.1904
4003 3 94.8721 64.8594 55.2866
2084 4 50.453 65.6653 56.2405
2087 7 49.0172 66.4724 55.3327
2088 8 50.4551 67.2789 56.2492
2091 3 49.0239 68.0858 55.3285
2325 5 51.8855 66.4716 55.3315
2329 1 51.887 68.0853 55.33
2322 2 53.3214 65.6661 56.2294
2326 6 53.3251 67.2807 56.2338
2327 7 54.7522 66.4727 55.3125
2331 3 54.7508 68.0881 55.3115
2324 4 56.1908 65.6668 56.215
2328 8 56.1901 67.2805 56.2147
2565 5 57.6163 66.4735 55.2914
2569 1 57.6138 68.0886 55.301
2562 2 59.0582 65.6671 56.1997
2566 6 59.0578 67.2835 56.1923
2567 7 60.4821 66.4734 55.2785
2571 3 60.4843 68.0855 55.2735
2564 4 61.9226 65.6637 56.179
2568 8 61.923 67.2779 56.1805
2802 2 64.7853 65.6648 56.1783
2805 5 63.3557 66.471 55.2677
2806 6 64.7902 67.278 56.1723
2809 1 63.3487 68.0844 55.262
2804 4 67.6469 65.6654 56.1785
2807 7 66.2217 66.4706 55.2621
2808 8 67.6474 67.2777 56.1758
2811 3 66.2212 68.0844 55.2633
3042 2 70.5216 65.6637 56.1825
3045 5 69.0869 66.4679 55.2715
3046 6 70.5211 67.2785 56.194
3049 1 69.0883 68.0816 55.2781
3044 4 73.383 65.6664 56.1794
3047 7 71.9469 66.4688 55.2723
3048 8 73.3803 67.2807 56.1705
3051 3 71.9458 68.0844 55.2648
3282 2 76.2522 65.6666 56.1757
3285 5 74.8181 66.4766 55.2614
3286 6 76.2489 67.2793 56.1694
3287 7 77.686 66.4733 55.2677
3289 1 74.8189 68.0913 55.2574
3291 3 77.676 68.089 55.249
3284 4 79.1185 65.668 56.1671
3288 8 79.1137 67.2829 56.1671
3525 5 80.5466 66.4747 55.2571
3529 1 80.5453 68.09 55.2548
3522 2 81.9814 65.6645 56.1726
3526 6 81.9736 67.2784 56.175
3527 7 83.4112 66.4732 55.2675
3531 3 83.4102 68.0866 55.2682
3524 4 84.8414 65.6647 56.1868
3528 8 84.8414 67.2807 56.1902
3765 5 86.2799 66.47 55.283
3769 1 86.2773 68.0879 55.2777
3762 2 87.7072 65.6664 56.2061
3764 4 90.5795 65.6668 56.2089
3766 6 87.7086 67.2809 56.1929
3767 7 89.1425 66.4724 55.3002
3768 8 90.5731 67.2814 56.2038
3771 3 89.1408 68.0901 55.2826
4002 2 93.4479 65.6691 56.2057
4005 5 92.0085 66.4734 55.2975
4006 6 93.4413 67.286 56.2046
4009 1 92.0076 68.0863 55.2916
4004 4 96.309 65.6659 56.1874
4007 7 94.8721 66.4786 55.2883
4008 8 96.3087 67.2786 56.2044
4011 3 94.8764 68.0868 55.2931
2092 4 50.4538 68.8928 56.2416
2095 7 49.0197 69.6982 55.3217
2096 8 50.4522 70.5082 56.2227
2099 3 49.0167 71.3132 55.3181
2333 5 51.884 69.6988 55.3152
2337 1 51.8853 71.3113 55.3114
2330 2 53.3209 68.8991 56.2283
2334 6 53.32 70.5104 56.2314
2335 7 54.747 69.7036 55.3096
2339 3 54.745 71.3146 55.3105
2332 4 56.1878 68.8956 56.2128
2336 8 56.1828 70.5102 56.2093
2573 5 57.6138 69.702 55.294
2577 1 57.6154 71.3179 55.2905
2570 2 59.0572 68.8976 56.1916
2574 6 59.0516 70.5119 56.1933
2575 7 60.4829 69.6998 55.2831
2579 3 60.4861 71.313 55.2788
2572 4 61.9213 68.8929 56.1827
2576 8 61.9154 70.5062 56.1803
2810 2 64.7843 68.8922 56.1767
2813 5 63.3511 69.699 55.2683
2814 6 64.7829 70.5055 56.1793
2817 1 63.3506 71.313 55.2732
2812 4 67.6482 68.8904 56.1821
2815 7 66.2176 69.6964 55.2699
2816 8 67.6504 70.5056 56.179
2819 3 66.2154 71.3092 55.2747
3050 2 70.5206 68.8962 56.1844
3053 5 69.0828 69.6953 55.2655
3054 6 70.5174 70.5105 56.1744
3057 1 69.0847 71.3129 55.2619
3052 4 73.3854 68.8942 56.166
3055 7 71.9495 69.7026 55.2575
3056 8 73.3814 70.5101 56.1738
3059 3 71.9503 71.3147 55.2596
3290 2 76.2513 68.8948 56.172
3293 5 74.8152 69.7054 55.2608
3294 6 76.2474 70.51 56.162
3295 7 77.683 69.7033 55.2591
3297 1 74.8154 71.3179 55.2618
3299 3 77.6799 71.3176 55.2574
3292 4 79.1147 68.8975 56.1688
3296 8 79.1142 70.5117 56.1677
3533 5 80.5516 69.7001 55.2601
3537 1 80.5496 71.3144 55.2641
3530 2 81.9775 68.8923 56.1698
3534 6 81.9831 70.5102 56.1729
3535 7 83.4148 69.6991 55.2659
3539 3 83.4158 71.3134 55.2623
3532 4 84.8421 68.8971 56.188
3536 8 84.8465 70.5124 56.1788
3773 5 86.2815 69.7017 55.2791
3777 1 86.2845 71.3154 55.2741
3770 2 87.7097 68.8977 56.1972
3772 4 90.5718 68.8976 56.1939
3774 6 87.7121 70.5109 56.1904
3775 7 89.1435 69.7013 55.2842
3776 8 90.5762 70.5131 56.1918
3779 3 89.1393 71.3125 55.2812
4010 2 93.4388 68.8985 56.1985
4013 5 92.0051 69.7006 55.2891
4014 6 93.4411 70.5125 56.1961
4017 1 92.0051 71.3168 55.278
4012 4 96.3079 68.895 56.2008
4015 7 94.8739 69.7018 55.2936
4016 8 96.3056 70.5087 56.2003
4019 3 94.877 71.3148 55.2857
2100 4 50.4514 72.1182 56.2232
2103 7 49.0206 72.9279 55.3122
2104 8 50.4574 73.7355 56.2128
2107 3 49.0206 74.5447 55.3172
2341 5 51.8819 72.9262 55.3098
2345 1 51.8933 74.5436 55.3052
2338 2 53.316 72.1215 56.2225
2342 6 53.3214 73.7365 56.2189
2343 7 54.748 72.927 55.304
2347 3 54.7523 74.542 55.3059
2340 4 56.1839 72.1238 56.2076
2344 8 56.1869 73.7373 56.2022
2581 5 57.6138 72.9319 55.2876
2585 1 57.6215 74.5469 55.2919
2578 2 59.0527 72.1253 56.189
2582 6 59.0561 73.7377 56.1947
2583 7 60.4872 72.9308 55.2721
2587 3 60.4846 74.5437 55.2743
2580 4 61.9198 72.1216 56.1783
2584 8 61.9199 73.7359 56.1764
2818 2 64.7819 72.1183 56.1823
2821 5 63.3533 72.9288 55.2678
2822 6 64.7851 73.7344 56.1846
2825 1 63.3533 74.5445 55.2708
2820 4 67.6503 72.1229 56.1686
2823 7 66.2134 72.927 55.2621
2824 8 67.653 73.7369 56.17
2827 3 66.2149 74.544 55.2638
3058 2 70.5185 72.1231 56.1698
3061 5 69.0847 72.9259 55.2556
3062 6 70.518 73.7385 56.1606
3065 1 69.0839 74.5398 55.2469
3060 4 73.3822 72.1249 56.1702
3063 7 71.9461 72.9289 55.2495
3064 8 73.3807 73.7389 56.1615
3067 3 71.9486 74.5453 55.2424
3298 2 76.2489 72.1259 56.1737
3301 5 74.8189 72.9319 55.2591
3302 6 76.2516 73.7385 56.168
3303 7 77.6836 72.9298 55.2583
3305 1 74.8192 74.5471 55.247
3307 3 77.6901 74.5439 55.2606
3300 4 79.1175 72.1251 56.1685
3304 8 79.1187 73.7384 56.1732
3541 5 80.5473 72.9286 55.2544
3545 1 80.5486 74.5402 55.2557
3538 2 81.979 72.1243 56.1673
3542 6 81.9766 73.7367 56.1661
3543 7 83.4155 72.9286 55.2609
3547 3 83.41 74.5432 55.258
3540 4 84.8379 72.1253 56.1697
3544 8 84.8452 73.7372 56.1736
3781 5 86.2791 72.9283 55.2689
3785 1 86.2746 74.5429 55.2545
3778 2 87.7098 72.1263 56.1848
3780 4 90.575 72.1278 56.187
3782 6 87.709 73.7408 56.1708
3783 7 89.1436 72.9301 55.2705
3784 8 90.577 73.7408 56.1837
3787 3 89.1439 74.5449 55.259
4018 2 93.4415 72.1236 56.1837
4021 5 92.0132 72.9336 55.2775
4022 6 93.4406 73.7381 56.1876
4025 1 92.0115 74.5453 55.2717
4020 4 96.3032 72.1209 56.2069
4023 7 94.8802 72.9307 55.2804
4024 8 96.3081 73.7381 56.2041
4027 3 94.8788 74.5445 55.2849
2108 4 50.4575 75.3508 56.2152
2111 7 49.0227 76.1611 55.3193
2112 8 50.4602 76.965 56.2238
2115 3 49.0215 77.7729 55.3202
2349 5 51.8881 76.1605 55.2973
2353 1 51.8882 77.772 55.3051
2346 2 53.3221 75.3507 56.2201
2350 6 53.3228 76.962 56.211
2351 7 54.7538 76.1566 55.3019
2355 3 54.7558 77.7681 55.2966
2348 4 56.1909 75.351 56.2019
2352 8 56.1868 76.9682 56.2063
2589 5 57.6187 76.1581 55.2877
2593 1 57.6217 77.7733 55.2875
2586 2 59.0541 75.3505 56.1952
2590 6 59.0564 76.9651 56.1914
2591 7 60.4814 76.158 55.2725
2595 3 60.4878 77.7705 55.2829
2588 4 61.922 75.3491 56.1787
2592 8 61.9233 76.9619 56.1839
2826 2 64.7853 75.3478 56.1782
2829 5 63.3515 76.1579 55.2572
2830 6 64.7843 76.9606 56.1738
2833 1 63.3505 77.7708 55.259
2828 4 67.6512 75.3514 56.1649
2831 7 66.2109 76.1558 55.2602
2832 8 67.6481 76.9663 56.1621
2835 3 66.2142 77.77 55.2534
3066 2 70.5188 75.3504 56.1438
3069 5 69.0819 76.1555 55.2478
3070 6 70.5155 76.9645 56.1442
3073 1 69.0785 77.7711 55.2425
3068 4 73.3808 75.352 56.1514
3071 7 71.946 76.1604 55.233
3072 8 73.3847 76.9667 56.1516
3075 3 71.951 77.7716 55.2295
3306 2 76.2515 75.3554 56.1629
3309 5 74.8167 76.1603 55.2421
3310 6 76.2456 76.9697 56.1555
3311 7 77.6851 76.157 55.2562
3313 1 74.818 77.7742 55.2423
3315 3 77.68 77.7697 55.2433
3308 4 79.1188 75.3519 56.1635
3312 8 79.1147 76.9636 56.1672
3549 5 80.5477 76.1542 55.2562
3553 1 80.5501 77.7673 55.2533
3546 2 81.9794 75.3529 56.1727
3550 6 81.9842 76.9647 56.1667
3551 7 83.416 76.1548 55.2536
3555 3 83.414 77.7693 55.2641
3548 4 84.8502 75.3504 56.168
3552 8 84.8513 76.9625 56.1713
3789 5 86.2809 76.157 55.2507
3793 1 86.2813 77.7695 55.2439
3786 2 87.7092 75.3538 56.1673
3788 4 90.5769 75.3537 56.1682
3790 6 87.7159 76.9644 56.1583
3791 7 89.1479 76.1547 55.251
3792 8 90.5791 76.9679 56.1683
3795 3 89.1539 77.772 55.2518
4026 2 93.442 75.3523 56.1892
4029 5 92.0132 76.1568 55.2695
4030 6 93.4389 76.9667 56.1892
4033 1 92.0205 77.7742 55.2617
4028 4 96.3115 75.354 56.2022
4031 7 94.8763 76.1585 55.2864
4032 8 96.3037 76.9668 56.1982
4035 3 94.8783 77.7742 55.2825
2116 4 50.4585 78.581 56.221
2119 7 49.0249 79.387 55.3206
2120 8 50.455 80.1935 56.214
2123 3 49.022 81.0004 55.3089
2357 5 51.8902 79.3849 55.303
2361 1 51.8912 80.9989 55.3044
2354 2 53.328 78.5764 56.2117
2358 6 53.325 80.191 56.2107
2359 7 54.7532 79.3871 55.3038
2363 3 54.7553 81.0031 55.3031
2356 4 56.1914 78.5803 56.2045
2360 8 56.19 80.1953 56.2131
2597 5 57.6183 79.3895 55.2924
2601 1 57.6207 81.0022 55.2867
2594 2 59.054 78.5817 56.1939
2598 6 59.0545 80.1958 56.1892
2599 7 60.4837 79.3864 55.2848
2603 3 60.4892 81.0015 55.2746
2596 4 61.9267 78.58 56.1878
2600 8 61.9229 80.1943 56.1803
2834 2 64.7827 78.5767 56.1694
2837 5 63.3503 79.3824 55.2573
2838 6 64.7847 80.1924 56.1721
2841 1 63.3505 80.9965 55.2619
2836 4 67.6499 78.5824 56.1593
2839 7 66.2112 79.3845 55.2459
2840 8 67.6514 80.1946 56.1496
2843 3 66.2144 80.9979 55.2399
3074 2 70.5187 78.5762 56.1461
3077 5 69.084 79.3846 55.243
3078 6 70.5148 80.1912 56.1476
3081 1 69.0839 81.0025 55.2328
3076 4 73.3839 78.5813 56.1469
3079 7 71.9474 79.3895 55.2386
3080 8 73.3809 80.1964 56.1451
3083 3 71.9458 81.0001 55.2261
3314 2 76.2488 78.5782 56.1567
3317 5 74.8165 79.3861 55.2321
3318 6 76.2483 80.1931 56.1486
3319 7 77.6825 79.3848 55.2428
3321 1 74.817 81.0001 55.2338
3323 3 77.6844 80.9994 55.2453
3316 4 79.1144 78.576 56.1588
3320 8 79.1162 80.1893 56.1569
3557 5 80.5485 79.3818 55.2472
3561 1 80.5505 80.9959 55.2464
3554 2 81.9808 78.575 56.1705
3558 6 81.9798 80.1904 56.1661
3559 7 83.4146 79.381 55.2598
3563 3 83.4138 80.9971 55.2595
3556 4 84.8518 78.5805 56.1634
3560 8 84.8537 80.1908 56.1532
3797 5 86.2844 79.3831 55.2442
3801 1 86.2845 81.0022 55.2461
3794 2 87.7188 78.5775 56.1522
3796 4 90.5785 78.579 56.1647
3798 6 87.7177 80.1897 56.1493
3799 7 89.1548 79.3867 55.2507
3800 8 90.5821 80.1963 56.1726
3803 3 89.1516 81.0006 55.2498
4034 2 93.4404 78.5821 56.1867
4037 5 92.0195 79.3846 55.2636
4038 6 93.4456 80.1937 56.1773
4041 1 92.0157 80.9999 55.2704
4036 4 96.3118 78.5822 56.1889
4039 7 94.8757 79.387 55.2707
4040 8 96.3159 80.1932 56.1815
4043 3 94.8827 81.0012 55.2727
2124 4 50.4587 81.8053 56.2156
2127 7 49.0164 82.6166 55.3114
2128 8 50.4543 83.4196 56.2221
2131 3 49.0221 84.2304 55.3127
2365 5 51.8861 82.614 55.3127
2369 1 51.888 84.2276 55.3116
2362 2 53.322 81.8067 56.2169
2366 6 53.3265 83.4207 56.2155
2367 7 54.7568 82.6145 55.3028
2371 3 54.7526 84.2282 55.3014
2364 4 56.1876 81.8116 56.2085
2368 8 56.1929 83.4262 56.2038
2605 5 57.6151 82.6184 55.2888
2609 1 57.6194 84.231 55.2854
2602 2 59.0564 81.8114 56.191
2606 6 59.0562 83.4256 56.1991
2607 7 60.4825 82.6175 55.2722
2611 3 60.4813 84.2291 55.2775
2604 4 61.9208 81.8064 56.181
2608 8 61.9259 83.421 56.1718
2842 2 64.7914 81.8052 56.1681
2845 5 63.3489 82.6106 55.2624
2846 6 64.7902 83.4184 56.1581
2849 1 63.3519 84.2266 55.2486
2844 4 67.6477 81.8084 56.1485
2847 7 66.2119 82.6108 55.234
2848 8 67.6498 83.4229 56.1415
2851 3 66.218 84.228 55.2306
3082 2 70.5125 81.8058 56.1434
3085 5 69.0793 82.6146 55.2332
3086 6 70.5177 83.42 56.1473
3089 1 69.0842 84.2279 55.2286
3084 4 73.3801 81.8091 56.1423
3087 7 71.9466 82.6132 55.233
3088 8 73.3854 83.4236 56.1433
3091 3 71.9494 84.2261 55.2382
3322 2 76.2505 81.8043 56.1512
3325 5 74.8108 82.6153 55.2382
3326 6 76.2468 83.4206 56.1552
3327 7 77.6889 82.6111 55.2456
3329 1 74.8192 84.2287 55.2363
3331 3 77.6824 84.2258 55.2461
3324 4 79.1151 81.8024 56.1564
3328 8 79.1167 83.4166 56.1568
3565 5 80.5538 82.6111 55.2471
3569 1 80.5543 84.2259 55.2564
3562 2 81.9799 81.8041 56.1675
3566 6 81.979 83.418 56.1708
3567 7 83.413 82.6126 55.2626
3571 3 83.4191 84.2268 55.2637
3564 4 84.8499 81.8028 56.1633
3568 8 84.8479 83.4147 56.1669
3805 5 86.2866 82.614 55.2544
3809 1 86.2837 84.229 55.2632
3802 2 87.7194 81.8051 56.1646
3804 4 90.5813 81.8049 56.1715
3806 6 87.7206 83.4221 56.1692
3807 7 89.1525 82.615 55.2554
3808 8 90.5812 83.42 56.1793
3811 3 89.1452 84.2307 55.2609
4042 2 93.4453 81.8075 56.1827
4045 5 92.0169 82.6123 55.2713
4046 6 93.4524 83.4233 56.1749
4049 1 92.0148 84.228 55.2639
4044 4 96.3097 81.8093 56.185
4047 7 94.8817 82.6148 55.2628
4048 8 96.3141 83.4228 56.1855
4051 3 94.8791 84.2297 55.2725
2132 4 50.4572 85.0347 56.2217
2135 7 49.0222 85.8424 55.3159
2136 8 50.4567 86.6498 56.2232
2139 3 49.0246 87.4592 55.3131
2373 5 51.8928 85.8441 55.3176
2377 1 51.8892 87.4581 55.3139
2370 2 53.3276 85.0348 56.2256
2374 6 53.3241 86.6485 56.2105
2375 7 54.7529 85.8431 55.3031
2379 3 54.7547 87.4597 55.3017
2372 4 56.1927 85.0376 56.2036
2376 8 56.1902 86.6499 56.2091
2613 5 57.6194 85.8454 55.2864
2617 1 57.6148 87.4573 55.2891
2610 2 59.0543 85.0383 56.1943
2614 6 59.0586 86.6501 56.1912
2615 7 60.4868 85.8453 55.2777
2619 3 60.4836 87.4579 55.275
2612 4 61.9258 85.0365 56.1744
2616 8 61.9264 86.6487 56.1771
2850 2 64.7899 85.0328 56.1514
2853 5 63.3495 85.8378 55.2479
2854 6 64.7936 86.6443 56.1505
2857 1 63.353 87.4554 55.2468
2852 4 67.6493 85.0347 56.134
2855 7 66.2198 85.8411 55.2246
2856 8 67.6552 86.6508 56.1299
2859 3 66.2138 87.456 55.2303
3090 2 70.5135 85.0331 56.1367
3093 5 69.0822 85.8387 55.2242
3094 6 70.5164 86.6437 56.1404
3097 1 69.086 87.457 55.2146
3092 4 73.3865 85.0381 56.1501
3095 7 71.9514 85.8407 55.2255
3096 8 73.3812 86.6498 56.1379
3099 3 71.947 87.4531 55.226
3330 2 76.245 85.034 56.1471
3333 5 74.8149 85.8404 55.2231
3334 6 76.2456 86.6476 56.1453
3335 7 77.6857 85.8396 55.2462
3337 1 74.817 87.4565 55.2324
3339 3 77.6871 87.4547 55.2454
3332 4 79.1119 85.0274 56.1604
3336 8 79.1172 86.6472 56.1595
3573 5 80.5471 85.8347 55.2569
3577 1 80.5533 87.4509 55.255
3570 2 81.9826 85.0324 56.1713
3574 6 81.9814 86.6454 56.173
3575 7 83.4184 85.8423 55.2629
3579 3 83.4177 87.4545 55.2636
3572 4 84.8495 85.0324 56.1772
3576 8 84.853 86.6453 56.1739
3813 5 86.2843 85.8395 55.2636
3817 1 86.2889 87.4508 55.2677
3810 2 87.7142 85.0367 56.1697
3812 4 90.5841 85.0321 56.1739
3814 6 87.719 86.6493 56.1767
3815 7 89.1516 85.8408 55.2555
3816 8 90.5864 86.6483 56.1775
3819 3 89.1526 87.4528 55.2684
4050 2 93.4447 85.0334 56.1767
4053 5 92.0157 85.845 55.2693
4054 6 93.4463 86.6467 56.1895
4057 1 92.0214 87.4577 55.2705
4052 4 96.3123 85.0378 56.1928
4055 7 94.8781 85.8397 55.2707
4056 8 96.3097 86.6474 56.1857
4059 3 94.882 87.4574 55.2797
2140 4 50.4586 88.265 56.2291
2143 7 49.0284 89.0697 55.3146
2144 8 50.4588 89.8782 56.2236
2381 5 51.8893 89.072 55.3085
2378 2 53.3256 88.2637 56.221
2382 6 53.3249 89.8775 56.222
2383 7 54.7535 89.0737 55.306
2380 4 56.1877 88.2632 56.2099
2384 8 56.1826 89.8743 56.2151
2621 5 57.6179 89.0759 55.3004
2618 2 59.0572 88.2618 56.1927
2622 6 59.0529 89.8774 56.1975
2623 7 60.4824 89.0735 55.2774
2620 4 61.9235 88.2616 56.1723
2624 8 61.9224 89.8745 56.1777
2858 2 64.7872 88.2594 56.1578
2861 5 63.3485 89.0697 55.2549
2862 6 64.7893 89.8742 56.1594
2860 4 67.6545 88.2607 56.1322
2863 7 66.2133 89.0709 55.2339
2864 8 67.6534 89.8749 56.1363
3098 2 70.5176 88.261 56.1447
3101 5 69.082 89.0701 55.2242
3102 6 70.5193 89.8762 56.1402
3100 4 73.3817 88.2628 56.1336
3103 7 71.9468 89.0706 55.2285
3104 8 73.3844 89.877 56.1421
3338 2 76.2496 88.2601 56.1525
3341 5 74.8252 89.0713 55.2283
3342 6 76.2448 89.8724 56.1503
3343 7 77.6899 89.0653 55.2482
3340 4 79.1178 88.2587 56.1647
3344 8 79.1155 89.8696 56.1716
3581 5 80.5486 89.0648 55.257
3578 2 81.9858 88.2603 56.1694
3582 6 81.9869 89.8761 56.1758
3583 7 83.4205 89.066 55.2678
3580 4 84.8516 88.2579 56.1731
3584 8 84.8529 89.8746 56.1719
3821 5 86.2869 89.0661 55.2603
3818 2 87.7197 88.2599 56.1776
3820 4 90.5836 88.2615 56.1714
3822 6 87.7213 89.8778 56.1705
3823 7 89.151 89.0677 55.2671
3824 8 90.5781 89.8778 56.183
4058 2 93.4488 88.2594 56.1969
4061 5 92.0221 89.0687 55.2731
4062 6 93.4465 89.8749 56.1946
4060 4 96.3108 88.2636 56.1992
4063 7 94.8788 89.0697 55.2844
4064 8 96.3133 89.8757 56.202
2147 3 49.0251 90.6842 55.3132
2148 4 50.4545 91.493 56.2234
2151 7 49.0237 92.2986 55.3103
2152 8 50.4533 93.1091 56.2208
2385 1 51.8894 90.6857 55.3205
2389 5 51.8893 92.3012 55.3198
2386 2 53.3254 91.4921 56.2276
2387 3 54.759 90.6874 55.313
2390 6 53.324 93.1043 56.231
2391 7 54.7552 92.2989 55.3168
2388 4 56.1862 91.4896 56.2354
2392 8 56.1894 93.1035 56.2309
2625 1 57.617 90.6868 55.308
2629 5 57.6209 92.2966 55.3197
2626 2 59.0612 91.4876 56.2094
2627 3 60.4848 90.6836 55.2811
2630 6 59.0585 93.103 56.2186
2631 7 60.4872 92.2948 55.2805
2628 4 61.9243 91.4911 56.1837
2632 8 61.9303 93.1038 56.1763
2865 1 63.3532 90.6831 55.2626
2866 2 64.7907 91.4893 56.168
2869 5 63.3556 92.2967 55.2563
2870 6 64.7926 93.1032 56.1648
2867 3 66.2173 90.6867 55.2366
2868 4 67.6516 91.4903 56.1427
2871 7 66.2156 92.296 55.2386
2872 8 67.6519 93.1063 56.1398
3105 1 69.0843 90.6848 55.2265
3106 2 70.5176 91.4921 56.1419
3109 5 69.0814 92.2976 55.2269
3110 6 70.5147 93.1033 56.1351
3107 3 71.9531 90.6867 55.2249
3108 4 73.3846 91.4874 56.1528
3111 7 71.9529 92.3015 55.2311
3112 8 73.3794 93.1014 56.157
3345 1 74.8218 90.6839 55.2388
3346 2 76.2528 91.4858 56.1619
3347 3 77.6845 90.6807 55.2532
3349 5 74.8228 92.2968 55.2557
3350 6 76.2506 93.0979 56.1692
3351 7 77.6875 92.2937 55.2598
3348 4 79.1159 91.4831 56.1733
3352 8 79.1162 93.0994 56.1769
3585 1 80.5539 90.6783 55.2593
3589 5 80.5513 92.2911 55.2665
3586 2 81.9848 91.4856 56.1753
3587 3 83.4194 90.6794 55.2665
3590 6 81.9872 93.0979 56.1743
3591 7 83.4175 92.2946 55.2614
3588 4 84.8541 91.4874 56.1675
3592 8 84.8508 93.1029 56.1654
3825 1 86.2887 90.6805 55.2586
3829 5 86.2864 92.2958 55.2606
3826 2 87.7188 91.4903 56.168
3827 3 89.1519 90.6801 55.2499
3828 4 90.585 91.4879 56.1731
3830 6 87.716 93.1025 56.1747
3831 7 89.1512 92.2966 55.2566
3832 8 90.5864 93.101 56.174
4065 1 92.0193 90.6823 55.2701
4066 2 93.4452 91.4919 56.1916
4069 5 92.0227 92.2972 55.2697
4070 6 93.4465 93.1063 56.1919
4067 3 94.8793 90.686 55.2972
4068 4 96.3126 91.4908 56.2064
4071 7 94.8827 92.3006 55.2835
4072 8 96.3096 93.107 56.2058
2155 3 49.0237 93.9119 55.3104
2156 4 50.4546 94.7192 56.2295
2159 7 49.0216 95.5278 55.3208
2160 8 50.4513 96.3325 56.2277
2393 1 51.8877 93.9142 55.3201
2397 5 51.8876 95.5267 55.3246
2394 2 53.3159 94.7189 56.2342
2395 3 54.7544 93.9147 55.3149
2398 6 53.323 96.3367 56.2327
2399 7 54.7503 95.5271 55.3218
2396 4 56.1885 94.7187 56.2318
2400 8 56.188 96.3322 56.2294
2633 1 57.6169 93.9093 55.317
2637 5 57.617 95.5226 55.3126
2634 2 59.0593 94.7158 56.2063
2635 3 60.4828 93.9088 55.2884
2638 6 59.054 96.332 56.2124
2639 7 60.4833 95.5228 55.287
2636 4 61.9279 94.7203 56.1752
2640 8 61.9219 96.332 56.181
2873 1 63.3524 93.9088 55.2536
2874 2 64.7884 94.72 56.1602
2877 5 63.345 95.5262 55.2455
2878 6 64.7826 96.3312 56.149
2875 3 66.2109 93.9116 55.2341
2876 4 67.6505 94.7187 56.1368
2879 7 66.2131 95.5266 55.2342
2880 8 67.6551 96.3321 56.1371
3113 1 69.083 93.9125 55.2206
3114 2 70.5158 94.7166 56.1389
3117 5 69.0835 95.5265 55.2233
3118 6 70.513 96.3344 56.1485
3115 3 71.9522 93.911 55.231
3116 4 73.3769 94.7149 56.1582
3119 7 71.9533 95.5271 55.2347
3120 8 73.3787 96.3305 56.1661
3353 1 74.8189 93.9088 55.2628
3354 2 76.2494 94.7133 56.1755
3355 3 77.6864 93.9082 55.2666
3357 5 74.8193 95.5242 55.2632
3358 6 76.2474 96.3287 56.1835
3359 7 77.6836 95.5228 55.273
3356 4 79.1144 94.7151 56.1787
3360 8 79.1153 96.3278 56.1845
3593 1 80.5501 93.9093 55.2685
3597 5 80.5455 95.5249 55.2716
3594 2 81.9841 94.7151 56.1802
3595 3 83.4193 93.9082 55.265
3598 6 81.9847 96.3306 56.1802
3599 7 83.4145 95.5225 55.2703
3596 4 84.8527 94.7159 56.1687
3600 8 84.8532 96.3307 56.1761
3833 1 86.2839 93.9081 55.2604
3837 5 86.2848 95.5232 55.2645
3834 2 87.7151 94.717 56.1709
3835 3 89.1528 93.9098 55.2613
3836 4 90.5826 94.7157 56.1855
3838 6 87.7157 96.331 56.1738
3839 7 89.1481 95.5257 55.265
3840 8 90.5795 96.3304 56.1823
4073 1 92.0196 93.9113 55.2717
4074 2 93.4399 94.721 56.1883
4077 5 92.0115 95.5237 55.2676
4078 6 93.4432 96.3337 56.1893
4075 3 94.8824 93.9126 55.2831
4076 4 96.3075 94.7191 56.2037
4079 7 94.8783 95.5269 55.2858
4080 8 96.3081 96.3339 56.196
